LAMMPS (3 Mar 2020)
OMP_NUM_THREADS environment is not set. Defaulting to 1 thread. (src/comm.cpp:94)
  using 1 OpenMP thread(s) per MPI task
clear
OMP_NUM_THREADS environment is not set. Defaulting to 1 thread. (src/comm.cpp:94)
  using 1 OpenMP thread(s) per MPI task
dimension 3
units metal
atom_style molecular
boundary p p p

pair_style lj/cut 9.4 #approx 2.5 sigma
pair_modify tail yes #Add tail contributions for density
bond_style harmonic
angle_style harmonic
dihedral_style opls


# Box Configuration Variables

variable lbox equal 7.0 #Unit Cells
variable Temp equal 298.0 #K
variable Press equal 1.0 # Bars
variable kb_eV equal 8.61733e-5
variable kJ_mol_to_eV equal 1.0364e-2

lattice fcc 12.00
Lattice spacing in x,y,z = 12 12 12

region box block 0 ${lbox} 0 ${lbox} 0 ${lbox}
region box block 0 7 0 ${lbox} 0 ${lbox}
region box block 0 7 0 7 0 ${lbox}
region box block 0 7 0 7 0 7

create_box  2 box             bond/types 1             angle/types 1             dihedral/types 1             extra/bond/per/atom 2             extra/angle/per/atom 3             extra/dihedral/per/atom 2             extra/special/per/atom 4
Created orthogonal box = (0 0 0) to (84 84 84)
  1 by 1 by 1 MPI processor grid
molecule hexane hexane_trappe.template
Read molecule hexane:
  6 atoms with max type 2
  5 bonds with max type 1
  4 angles with max type 1
  3 dihedrals with max type 1
  0 impropers with max type 0
# Imports hexane atom type 1 and 2 are ch3 and ch2 respectively

create_atoms 0 box mol hexane 435231231
Created 8232 atoms
  create_atoms CPU = 0.00639366 secs

# TraPPE Model

pair_coeff 1 1 $(98*v_kb_eV) 3.75
pair_coeff 1 1 0.008444983399999999793 3.75
pair_coeff 1 2 $(67.14*v_kb_eV) 3.85
pair_coeff 1 2 0.0057856753619999999605 3.85
pair_coeff 2 2 $(46*v_kb_eV) 3.95
pair_coeff 2 2 0.0039639717999999995665 3.95
bond_coeff 1 $(265265.6*v_kJ_mol_to_eV/100) 1.5220  #K includes 1/2 factor. Division by 100 converts from nm^-2 to \AA^-2 Coefficient from GROMACS implementation of the OPLS-AA FF.
bond_coeff 1 27.49212678399999632 1.5220  
angle_coeff 1 $(62500*v_kb_eV/2) 114 #K divided by 2 to be correct
angle_coeff 1 2.692915624999999924 114 
dihedral_coeff 1 0.00 $(2*v_kb_eV*355.03) $(2*v_kb_eV*-68.19) $(2*v_kb_eV*791.32)
dihedral_coeff 1 0.00 0.061188213397999992316 $(2*v_kb_eV*-68.19) $(2*v_kb_eV*791.32)
dihedral_coeff 1 0.00 0.061188213397999992316 -0.011752314653999999805 $(2*v_kb_eV*791.32)
dihedral_coeff 1 0.00 0.061188213397999992316 -0.011752314653999999805 0.13638131151200000302




# Masses
mass 1 15.035
mass 2 14.026


velocity all create ${Temp} 1234569
velocity all create 298 1234569
timestep        0.001


fix NVE all nve

dump 1 all custom 100 test.dump id mol type x y z

run 100
Neighbor list info ...
  update every 1 steps, delay 10 steps, check yes
  max neighbors/atom: 2000, page size: 100000
  master list distance cutoff = 11.4
  ghost atom cutoff = 11.4
  binsize = 5.7, bins = 15 15 15
  1 neighbor lists, perpetual/occasional/extra = 1 0 0
  (1) pair lj/cut, perpetual
      attributes: half, newton on
      pair build: half/bin/newton
      stencil: half/bin/3d/newton
      bin: standard
Per MPI rank memory allocation (min/avg/max) = 11.27 | 11.27 | 11.27 Mbytes
Step Temp E_pair E_mol TotEng Press 
       0          298    78.766721    53.283354    449.10427   -1751.0553 
     100    351.01379    -137.1909    211.04729    447.31408   -4953.8186 
Loop time of 0.684193 on 1 procs for 100 steps with 8232 atoms

Performance: 12.628 ns/day, 1.901 hours/ns, 146.158 timesteps/s
99.0% CPU use with 1 MPI tasks x 1 OpenMP threads

MPI task timing breakdown:
Section |  min time  |  avg time  |  max time  |%varavg| %total
---------------------------------------------------------------
Pair    | 0.42894    | 0.42894    | 0.42894    |   0.0 | 62.69
Bond    | 0.12726    | 0.12726    | 0.12726    |   0.0 | 18.60
Neigh   | 0.10034    | 0.10034    | 0.10034    |   0.0 | 14.66
Comm    | 0.0072802  | 0.0072802  | 0.0072802  |   0.0 |  1.06
Output  | 0.0083507  | 0.0083507  | 0.0083507  |   0.0 |  1.22
Modify  | 0.0088523  | 0.0088523  | 0.0088523  |   0.0 |  1.29
Other   |            | 0.003171   |            |       |  0.46

Nlocal:    8232 ave 8232 max 8232 min
Histogram: 1 0 0 0 0 0 0 0 0 0
Nghost:    8067 ave 8067 max 8067 min
Histogram: 1 0 0 0 0 0 0 0 0 0
Neighs:    336847 ave 336847 max 336847 min
Histogram: 1 0 0 0 0 0 0 0 0 0

Total # of neighbors = 336847
Ave neighs/atom = 40.9192
Ave special neighs/atom = 4
Neighbor list builds = 6
Dangerous builds = 0


unfix NVE





fix NVT all nvt temp ${Temp} ${Temp} $(100*dt)
fix NVT all nvt temp 298 ${Temp} $(100*dt)
fix NVT all nvt temp 298 298 $(100*dt)
fix NVT all nvt temp 298 298 0.10000000000000000555

thermo 100

thermo_style custom step density temp elapsed

run 10000
Per MPI rank memory allocation (min/avg/max) = 11.27 | 11.27 | 11.27 Mbytes
Step Density Temp Elapsed 
     100   0.33123908    351.01379        0 
     200   0.33123908    321.73084      100 
     300   0.33123908     330.4995      200 
     400   0.33123908    316.72223      300 
     500   0.33123908    307.04616      400 
     600   0.33123908    288.88244      500 
     700   0.33123908    281.45197      600 
     800   0.33123908    284.57909      700 
     900   0.33123908    300.45221      800 
    1000   0.33123908    312.16626      900 
    1100   0.33123908     301.5773     1000 
    1200   0.33123908    300.79942     1100 
    1300   0.33123908    290.58646     1200 
    1400   0.33123908    301.08517     1300 
    1500   0.33123908    303.10039     1400 
    1600   0.33123908    282.26179     1500 
    1700   0.33123908    288.80438     1600 
    1800   0.33123908     296.6236     1700 
    1900   0.33123908    310.95826     1800 
    2000   0.33123908    300.51135     1900 
    2100   0.33123908    293.81131     2000 
    2200   0.33123908    289.72301     2100 
    2300   0.33123908    297.14033     2200 
    2400   0.33123908    310.58408     2300 
    2500   0.33123908    309.18842     2400 
    2600   0.33123908    299.47504     2500 
    2700   0.33123908    289.95623     2600 
    2800   0.33123908    290.19163     2700 
    2900   0.33123908    297.12341     2800 
    3000   0.33123908    297.19581     2900 
    3100   0.33123908    293.08243     3000 
    3200   0.33123908    295.87879     3100 
    3300   0.33123908    301.48347     3200 
    3400   0.33123908    302.59634     3300 
    3500   0.33123908    296.54568     3400 
    3600   0.33123908     292.4622     3500 
    3700   0.33123908    291.85979     3600 
    3800   0.33123908    299.87238     3700 
    3900   0.33123908    304.41652     3800 
    4000   0.33123908    301.70506     3900 
    4100   0.33123908    299.96401     4000 
    4200   0.33123908    294.32508     4100 
    4300   0.33123908    294.84727     4200 
    4400   0.33123908    296.67138     4300 
    4500   0.33123908    295.80806     4400 
    4600   0.33123908    294.94338     4500 
    4700   0.33123908     295.3759     4600 
    4800   0.33123908    301.59051     4700 
    4900   0.33123908    305.61693     4800 
    5000   0.33123908    301.55273     4900 
    5100   0.33123908    291.11416     5000 
    5200   0.33123908    295.52803     5100 
    5300   0.33123908    301.75874     5200 
    5400   0.33123908    307.18178     5300 
    5500   0.33123908    300.25048     5400 
    5600   0.33123908    296.24483     5500 
    5700   0.33123908     292.2134     5600 
    5800   0.33123908    295.22489     5700 
    5900   0.33123908    298.04503     5800 
    6000   0.33123908    300.11889     5900 
    6100   0.33123908    292.60725     6000 
    6200   0.33123908    297.54815     6100 
    6300   0.33123908    300.67481     6200 
    6400   0.33123908    302.12016     6300 
    6500   0.33123908    297.69227     6400 
    6600   0.33123908    295.05551     6500 
    6700   0.33123908    295.79406     6600 
    6800   0.33123908    299.75287     6700 
    6900   0.33123908    300.94227     6800 
    7000   0.33123908    299.65481     6900 
    7100   0.33123908    294.57531     7000 
    7200   0.33123908    288.42933     7100 
    7300   0.33123908     300.4168     7200 
    7400   0.33123908    298.44176     7300 
    7500   0.33123908    296.92385     7400 
    7600   0.33123908    293.05016     7500 
    7700   0.33123908    301.27443     7600 
    7800   0.33123908    303.44218     7700 
    7900   0.33123908    300.58831     7800 
    8000   0.33123908    294.52534     7900 
    8100   0.33123908    294.22993     8000 
    8200   0.33123908    296.43864     8100 
    8300   0.33123908    305.30818     8200 
    8400   0.33123908    300.83291     8300 
    8500   0.33123908     295.0973     8400 
    8600   0.33123908    291.74771     8500 
    8700   0.33123908    293.48059     8600 
    8800   0.33123908    297.53498     8700 
    8900   0.33123908    301.18871     8800 
    9000   0.33123908    296.92118     8900 
    9100   0.33123908    292.48291     9000 
    9200   0.33123908    298.13157     9100 
    9300   0.33123908    301.70416     9200 
    9400   0.33123908    299.17624     9300 
    9500   0.33123908    300.58409     9400 
    9600   0.33123908    298.56193     9500 
    9700   0.33123908    296.80739     9600 
    9800   0.33123908    297.77255     9700 
    9900   0.33123908    299.55924     9800 
   10000   0.33123908    299.16897     9900 
   10100   0.33123908    297.78289    10000 
Loop time of 70.572 on 1 procs for 10000 steps with 8232 atoms

Performance: 12.243 ns/day, 1.960 hours/ns, 141.699 timesteps/s
92.2% CPU use with 1 MPI tasks x 1 OpenMP threads

MPI task timing breakdown:
Section |  min time  |  avg time  |  max time  |%varavg| %total
---------------------------------------------------------------
Pair    | 47.432     | 47.432     | 47.432     |   0.0 | 67.21
Bond    | 14.098     | 14.098     | 14.098     |   0.0 | 19.98
Neigh   | 4.9214     | 4.9214     | 4.9214     |   0.0 |  6.97
Comm    | 0.91681    | 0.91681    | 0.91681    |   0.0 |  1.30
Output  | 0.98742    | 0.98742    | 0.98742    |   0.0 |  1.40
Modify  | 1.744      | 1.744      | 1.744      |   0.0 |  2.47
Other   |            | 0.4716     |            |       |  0.67

Nlocal:    8232 ave 8232 max 8232 min
Histogram: 1 0 0 0 0 0 0 0 0 0
Nghost:    9074 ave 9074 max 9074 min
Histogram: 1 0 0 0 0 0 0 0 0 0
Neighs:    380396 ave 380396 max 380396 min
Histogram: 1 0 0 0 0 0 0 0 0 0

Total # of neighbors = 380396
Ave neighs/atom = 46.2094
Ave special neighs/atom = 4
Neighbor list builds = 274
Dangerous builds = 0


unfix NVT

# fix NPThigh all npt temp ${Temp} ${Temp} $(100*dt) iso 10.0 1.0 $(1000*dt)

# run 50000

# unfix NPThigh

fix NPT all npt temp ${Temp} ${Temp} $(100*dt) iso 500.0 50.0 $(1000*dt)
fix NPT all npt temp 298 ${Temp} $(100*dt) iso 500.0 50.0 $(1000*dt)
fix NPT all npt temp 298 298 $(100*dt) iso 500.0 50.0 $(1000*dt)
fix NPT all npt temp 298 298 0.10000000000000000555 iso 500.0 50.0 $(1000*dt)
fix NPT all npt temp 298 298 0.10000000000000000555 iso 500.0 50.0 1

run 50000
Per MPI rank memory allocation (min/avg/max) = 18.48 | 18.48 | 18.48 Mbytes
Step Density Temp Elapsed 
   10100   0.33123908    297.78289        0 
   10200    0.3355655    297.02692      100 
   10300   0.34374688    298.70088      200 
   10400   0.35121611    298.96582      300 
   10500   0.35867849     299.9026      400 
   10600   0.36539356    297.73292      500 
   10700   0.37164359    299.40166      600 
   10800   0.37788789    299.67195      700 
   10900   0.38407947    298.77678      800 
   11000   0.39029948    300.00031      900 
   11100   0.39636773    299.45593     1000 
   11200   0.40243525    295.24609     1100 
   11300   0.40843318    302.60051     1200 
   11400   0.41439786    298.67487     1300 
   11500   0.42025567    298.20119     1400 
   11600   0.42631422    302.73319     1500 
   11700   0.43235914    300.62885     1600 
   11800   0.43823258    298.16784     1700 
   11900   0.44419244    298.95408     1800 
   12000   0.45035081    293.29026     1900 
   12100   0.45630718    295.59156     2000 
   12200   0.46223511    298.43538     2100 
   12300   0.46832254    303.38316     2200 
   12400   0.47437228    297.91937     2300 
   12500   0.48062399    293.52061     2400 
   12600    0.4869014     296.6245     2500 
   12700   0.49316572    296.77389     2600 
   12800   0.49876724    297.01992     2700 
   12900   0.50411815    303.18425     2800 
   13000   0.50982757    303.36857     2900 
   13100   0.51573462    302.11248     3000 
   13200   0.52160008    296.97423     3100 
   13300   0.52697977    295.87762     3200 
   13400   0.53261582    296.29823     3300 
   13500   0.53800195    298.40216     3400 
   13600   0.54310461    300.52573     3500 
   13700    0.5485243    298.11955     3600 
   13800   0.55372153    299.12466     3700 
   13900   0.55894435     299.6319     3800 
   14000   0.56402048    296.70155     3900 
   14100   0.56840751    299.42854     4000 
   14200   0.57270681    299.64624     4100 
   14300   0.57722432     296.9251     4200 
   14400   0.58177539    298.23271     4300 
   14500   0.58633627    296.93871     4400 
   14600   0.59093075    297.02238     4500 
   14700   0.59529393    295.40704     4600 
   14800   0.59985661    296.26055     4700 
   14900    0.6042989    297.43803     4800 
   15000   0.60856955    297.24582     4900 
   15100   0.61228136    296.26303     5000 
   15200    0.6161222    295.87993     5100 
   15300   0.61986284    303.53238     5200 
   15400   0.62377995    301.75903     5300 
   15500   0.62745645    298.51535     5400 
   15600   0.63071988    298.92919     5500 
   15700   0.63350211    300.28558     5600 
   15800   0.63629572    297.62833     5700 
   15900   0.63882797    296.96257     5800 
   16000   0.64082637     298.3228     5900 
   16100   0.64290035    300.00503     6000 
   16200   0.64526325    299.59763     6100 
   16300    0.6479005    297.40516     6200 
   16400   0.65008735    295.52594     6300 
   16500   0.65300309    294.33897     6400 
   16600   0.65573674    294.91517     6500 
   16700   0.65720151    300.76686     6600 
   16800   0.65778939    298.01727     6700 
   16900   0.65786181    294.43544     6800 
   17000   0.65744375    298.97224     6900 
   17100   0.65805398    300.30929     7000 
   17200   0.65899165    299.30747     7100 
   17300   0.65982531    293.91857     7200 
   17400   0.66042407    296.01463     7300 
   17500   0.66157428    298.11732     7400 
   17600   0.66204881    298.98861     7500 
   17700   0.66155759    300.52935     7600 
   17800   0.66167432    295.65122     7700 
   17900   0.66203599    295.22983     7800 
   18000   0.66259156    297.19387     7900 
   18100   0.66379899    302.57954     8000 
   18200   0.66473728    301.16067     8100 
   18300   0.66476342    298.07713     8200 
   18400   0.66451113    294.06735     8300 
   18500   0.66491646    297.33303     8400 
   18600   0.66573774    296.13422     8500 
   18700   0.66624919    299.56015     8600 
   18800   0.66623953    296.25502     8700 
   18900   0.66528462    295.71332     8800 
   19000   0.66541137    296.88383     8900 
   19100   0.66568545    300.57705     9000 
   19200   0.66600251    304.14291     9100 
   19300   0.66656758    294.42118     9200 
   19400   0.66796395    292.99438     9300 
   19500   0.66872266    298.33751     9400 
   19600   0.66960528    298.92927     9500 
   19700   0.67016939    299.74657     9600 
   19800   0.67044819    299.95716     9700 
   19900   0.67069496    296.81389     9800 
   20000   0.67070471    298.39735     9900 
   20100   0.67133967    296.01014    10000 
   20200   0.67147142    294.90756    10100 
   20300   0.67145022    302.27019    10200 
   20400   0.67107144    300.13933    10300 
   20500   0.67021425    298.92556    10400 
   20600   0.66985186     294.4812    10500 
   20700   0.67099251    290.29564    10600 
   20800   0.67193775    297.82693    10700 
   20900   0.67364241    298.45542    10800 
   21000   0.67464859    298.62179    10900 
   21100   0.67422119    298.46109    11000 
   21200   0.67285851    293.24244    11100 
   21300   0.67134659    295.23961    11200 
   21400   0.67187508    300.38594    11300 
   21500   0.67484608    302.55604    11400 
   21600   0.67829571    297.17154    11500 
   21700   0.67936311    296.82693    11600 
   21800   0.67815394    299.30252    11700 
   21900   0.67677339    302.78616    11800 
   22000   0.67479892    300.02703    11900 
   22100   0.67244196    294.12357    12000 
   22200    0.6705954    295.00145    12100 
   22300   0.67101055    293.80825    12200 
   22400    0.6720054    296.70626    12300 
   22500   0.67194168    299.09346    12400 
   22600   0.67054877    299.70277    12500 
   22700   0.66979423    297.83638    12600 
   22800   0.66972521     292.2537    12700 
   22900   0.66981374    293.61932    12800 
   23000   0.66962203    300.14929    12900 
   23100   0.67038664     301.5288    13000 
   23200   0.67222172    299.75497    13100 
   23300   0.67371768    297.31945    13200 
   23400   0.67396409    299.69596    13300 
   23500   0.67317673     296.8785    13400 
   23600   0.67245949    298.69809    13500 
   23700   0.67242479    289.22253    13600 
   23800   0.67230455    295.86062    13700 
   23900   0.67250023    299.42582    13800 
   24000   0.67389036    299.69445    13900 
   24100   0.67564668    296.39832    14000 
   24200   0.67626395    301.88412    14100 
   24300    0.6751169    303.46814    14200 
   24400   0.67383804    297.10267    14300 
   24500   0.67244693     293.1605    14400 
   24600   0.67174446    297.48317    14500 
   24700   0.67214514    299.17848    14600 
   24800   0.67331854    295.45248    14700 
   24900   0.67376925    297.87302    14800 
   25000   0.67309972    299.43147    14900 
   25100   0.67297012    295.21421    15000 
   25200   0.67306643     298.3826    15100 
   25300    0.6734165    298.38752    15200 
   25400   0.67307989    296.17476    15300 
   25500   0.67152088    294.78395    15400 
   25600   0.67100207       291.28    15500 
   25700   0.67218337    299.48271    15600 
   25800   0.67432072    298.48703    15700 
   25900   0.67505278    299.22124    15800 
   26000    0.6742618    299.53607    15900 
   26100   0.67300077    295.88514    16000 
   26200   0.67119886    297.30373    16100 
   26300   0.67084919    296.09111    16200 
   26400   0.67156428    300.57899    16300 
   26500   0.67261087    301.48981    16400 
   26600   0.67271058    295.46107    16500 
   26700   0.67088919    296.74846    16600 
   26800   0.66917247    295.56851    16700 
   26900   0.66817528    305.77057    16800 
   27000   0.66851754    299.34754    16900 
   27100   0.66911702    298.66362    17000 
   27200   0.67051426    296.80955    17100 
   27300   0.67228664    294.94552    17200 
   27400   0.67392692    296.67881    17300 
   27500   0.67474201    302.49366    17400 
   27600   0.67526532    295.29473    17500 
   27700   0.67487067     293.9225    17600 
   27800    0.6736287    298.85164    17700 
   27900   0.67245552    298.45913    17800 
   28000    0.6719877    299.19732    17900 
   28100   0.67179742     298.1494    18000 
   28200   0.67187998    300.36116    18100 
   28300    0.6723096     303.8479    18200 
   28400   0.67275919    301.99391    18300 
   28500   0.67370995    297.02759    18400 
   28600    0.6751963     298.7242    18500 
   28700   0.67657388    294.79632    18600 
   28800   0.67678778    299.64489    18700 
   28900   0.67569005    297.39536    18800 
   29000   0.67414326    298.50583    18900 
   29100   0.67232993    296.77886    19000 
   29200   0.67039063    294.12186    19100 
   29300   0.66920525    296.17371    19200 
   29400   0.66929605    298.91521    19300 
   29500   0.67047179    298.04556    19400 
   29600    0.6706086    298.43679    19500 
   29700   0.67038488    294.91235    19600 
   29800   0.66977156    294.39377    19700 
   29900   0.67000802    299.90084    19800 
   30000   0.67143898    303.65372    19900 
   30100   0.67371746    297.09152    20000 
   30200   0.67519727    297.82541    20100 
   30300   0.67443738    297.48209    20200 
   30400   0.67458893     295.6011    20300 
   30500   0.67604178    292.03715    20400 
   30600    0.6770846    294.62936    20500 
   30700   0.67716657    298.99619    20600 
   30800   0.67613379    300.70365    20700 
   30900   0.67415976     298.2462    20800 
   31000    0.6724113    295.11821    20900 
   31100   0.67158843    301.68334    21000 
   31200   0.67181962    301.43031    21100 
   31300   0.67199182    296.45839    21200 
   31400   0.67170092    296.25841    21300 
   31500   0.67179986    291.78918    21400 
   31600   0.67235388    295.16542    21500 
   31700   0.67386706    302.06228    21600 
   31800    0.6758228    297.69214    21700 
   31900   0.67663294    297.17155    21800 
   32000    0.6768388     293.0153    21900 
   32100   0.67607387    296.98041    22000 
   32200   0.67507213    296.72092    22100 
   32300   0.67295783     301.0133    22200 
   32400   0.67220158    299.58671    22300 
   32500   0.67125346     296.2855    22400 
   32600   0.66995828      292.517    22500 
   32700   0.66960577    296.40653    22600 
   32800   0.67089828    303.69049    22700 
   32900   0.67180684    303.38261    22800 
   33000   0.67217378    298.48369    22900 
   33100   0.67243792     296.2973    23000 
   33200   0.67324792     296.6529    23100 
   33300   0.67425127    296.72779    23200 
   33400   0.67472097    297.73969    23300 
   33500   0.67469923    300.11666    23400 
   33600   0.67377744    299.87695    23500 
   33700   0.67292717    295.72691    23600 
   33800   0.67165247    294.69855    23700 
   33900   0.67094268    292.80912    23800 
   34000    0.6709285    298.98486    23900 
   34100   0.67060049    299.31765    24000 
   34200   0.66971257    299.89259    24100 
   34300   0.66930387    295.21122    24200 
   34400   0.67069524    296.44947    24300 
   34500    0.6732189    299.03615    24400 
   34600   0.67554316    300.06141    24500 
   34700   0.67570615    300.78277    24600 
   34800   0.67293727     297.9228    24700 
   34900   0.66964514    297.90754    24800 
   35000   0.66690903    295.03713    24900 
   35100   0.66565713    298.04962    25000 
   35200   0.66565207     298.5196    25100 
   35300   0.66618212    301.62714    25200 
   35400   0.66684631    295.71946    25300 
   35500   0.66756121    296.67042    25400 
   35600   0.66872574    299.14628    25500 
   35700   0.66998042    302.58723    25600 
   35800   0.67063197    302.00582    25700 
   35900   0.66998581    297.52184    25800 
   36000    0.6691557    298.12618    25900 
   36100   0.66874531    296.61817    26000 
   36200   0.66869695     298.6634    26100 
   36300   0.66900289      301.621    26200 
   36400   0.67008202    298.33047    26300 
   36500   0.67121695    297.08908    26400 
   36600   0.67167427    295.18934    26500 
   36700   0.67243304    294.24909    26600 
   36800   0.67291224    302.26108    26700 
   36900   0.67294003    300.65429    26800 
   37000   0.67228386    299.80748    26900 
   37100   0.67005141    298.70174    27000 
   37200   0.66744851     300.3776    27100 
   37300   0.66569115    294.01773    27200 
   37400   0.66587965    294.37456    27300 
   37500   0.66753365    298.72264    27400 
   37600   0.66933802    299.50926    27500 
   37700   0.66951854    299.87839    27600 
   37800   0.66877798    295.10291    27700 
   37900   0.66795216    295.32162    27800 
   38000   0.66781447    297.92378    27900 
   38100   0.66835131    296.83222    28000 
   38200   0.66994074    299.49985    28100 
   38300     0.671392    293.18156    28200 
   38400      0.67239    292.84853    28300 
   38500   0.67234741    296.21301    28400 
   38600   0.67141771    301.13224    28500 
   38700   0.67032608    296.97822    28600 
   38800   0.66897165    296.61046    28700 
   38900    0.6683634    296.77476    28800 
   39000   0.66795549     295.7745    28900 
   39100   0.66722916     299.9861    29000 
   39200   0.66585837    300.96804    29100 
   39300   0.66526427    299.74923    29200 
   39400   0.66559345     296.5672    29300 
   39500    0.6666882     301.1694    29400 
   39600   0.66830087     300.1349    29500 
   39700   0.67001292    293.99227    29600 
   39800   0.67099123    298.45649    29700 
   39900   0.67118759    299.01353    29800 
   40000   0.67061769    300.22258    29900 
   40100   0.67023062    291.93505    30000 
   40200   0.66923975    295.23706    30100 
   40300    0.6682375    295.08007    30200 
   40400    0.6667295    300.26235    30300 
   40500   0.66530684    298.55762    30400 
   40600   0.66384517    294.98126    30500 
   40700   0.66241371    296.00543    30600 
   40800   0.66294973     298.5602    30700 
   40900    0.6649976    294.00522    30800 
   41000   0.66697325    298.98803    30900 
   41100   0.66772797    298.71107    31000 
   41200   0.66754089    300.10141    31100 
   41300   0.66832595    298.46046    31200 
   41400   0.67006816    294.16026    31300 
   41500   0.67116543    297.62927    31400 
   41600   0.67163467    300.11083    31500 
   41700   0.67136779    300.62244    31600 
   41800   0.66974592    299.00828    31700 
   41900   0.66797529     301.1318    31800 
   42000   0.66683375    297.48105    31900 
   42100   0.66660815    297.82438    32000 
   42200   0.66596314    300.45886    32100 
   42300   0.66547683    299.68405    32200 
   42400   0.66576967    299.16813    32300 
   42500   0.66663633    297.33009    32400 
   42600   0.66829472    297.18647    32500 
   42700   0.67006138    296.33545    32600 
   42800    0.6699178    299.14258    32700 
   42900   0.66841668    295.84009    32800 
   43000   0.66698077    295.02479    32900 
   43100   0.66535158    298.42253    33000 
   43200   0.66414161    297.92545    33100 
   43300   0.66412249    297.24006    33200 
   43400   0.66518159    299.39034    33300 
   43500   0.66669671    297.94056    33400 
   43600   0.66864897    293.05106    33500 
   43700   0.67022109    294.61012    33600 
   43800   0.67035759    298.85541    33700 
   43900   0.66910216     296.2962    33800 
   44000   0.66726065    300.46802    33900 
   44100   0.66590307    295.28088    34000 
   44200   0.66518476    293.93189    34100 
   44300   0.66513697    297.03707    34200 
   44400   0.66591828    301.43779    34300 
   44500   0.66686826    297.75519    34400 
   44600    0.6671968    293.77744    34500 
   44700   0.66710533    300.99023    34600 
   44800   0.66710984    295.12229    34700 
   44900   0.66621814    298.23529    34800 
   45000   0.66483789    299.10183    34900 
   45100   0.66345674    297.56233    35000 
   45200   0.66183928    295.88694    35100 
   45300   0.65898718    297.85154    35200 
   45400    0.6568654    301.59275    35300 
   45500   0.65680058    295.30246    35400 
   45600   0.65888053    297.78219    35500 
   45700   0.66168888    298.37496    35600 
   45800   0.66459404    301.50902    35700 
   45900    0.6670783    303.74807    35800 
   46000   0.66841993    296.97976    35900 
   46100   0.66812425    296.31489    36000 
   46200   0.66732222    296.82559    36100 
   46300   0.66581686    297.82178    36200 
   46400   0.66445675    301.37499    36300 
   46500   0.66361584    297.81305    36400 
   46600   0.66345538    294.21016    36500 
   46700   0.66354376    297.27156    36600 
   46800   0.66404856    295.22397    36700 
   46900    0.6649926    301.43675    36800 
   47000   0.66567836     300.5175    36900 
   47100   0.66518742    301.68238    37000 
   47200   0.66395042    297.01664    37100 
   47300   0.66320976    294.47652    37200 
   47400   0.66233917    298.10842    37300 
   47500   0.66079027    298.64556    37400 
   47600   0.66014288    298.02848    37500 
   47700   0.65935324    297.82437    37600 
   47800   0.65957979    299.75444    37700 
   47900   0.65894324     305.5065    37800 
   48000   0.65791209    299.40864    37900 
   48100   0.65791544    298.11252    38000 
   48200   0.65851468    294.54232    38100 
   48300   0.65852687    299.39241    38200 
   48400   0.65859442    303.31037    38300 
   48500   0.65840245     295.2077    38400 
   48600   0.65780396    300.26087    38500 
   48700   0.65740082    294.85606    38600 
   48800   0.65732647    299.43323    38700 
   48900   0.65736604    299.44989    38800 
   49000   0.65613591    302.04186    38900 
   49100   0.65393989    300.66076    39000 
   49200   0.65237997    297.50336    39100 
   49300   0.65259427    296.38596    39200 
   49400   0.65492389    299.79182    39300 
   49500   0.65771773    298.79146    39400 
   49600   0.65894956     299.3636    39500 
   49700   0.65907078    299.06329    39600 
   49800   0.65840173    294.52208    39700 
   49900   0.65839845    293.79395    39800 
   50000   0.65933345    296.78226    39900 
   50100     0.660335    299.31813    40000 
   50200   0.65983819    301.06013    40100 
   50300   0.65803813    298.80108    40200 
   50400   0.65669712    292.49237    40300 
   50500   0.65693415    292.63869    40400 
   50600   0.65793307    300.18024    40500 
   50700   0.65961401    297.02988    40600 
   50800   0.66023768    293.95556    40700 
   50900   0.65857961    293.02985    40800 
   51000   0.65594895    299.41561    40900 
   51100   0.65392573     301.2656    41000 
   51200   0.65305282    296.43028    41100 
   51300   0.65370879    294.96675    41200 
   51400   0.65503755    295.90614    41300 
   51500   0.65609289    299.81056    41400 
   51600   0.65590711    301.58696    41500 
   51700   0.65511602    298.57286    41600 
   51800   0.65383789    296.40218    41700 
   51900   0.65335529    298.01882    41800 
   52000   0.65313553    298.14477    41900 
   52100   0.65251704    298.48468    42000 
   52200   0.65218822     299.8563    42100 
   52300   0.65200267     296.5659    42200 
   52400   0.65225643    298.90914    42300 
   52500   0.65364736    301.49292    42400 
   52600   0.65492563    303.91443    42500 
   52700   0.65480221    298.25049    42600 
   52800    0.6538685    297.76757    42700 
   52900   0.65247006    300.31103    42800 
   53000   0.65204664    299.41708    42900 
   53100   0.65192618    300.39187    43000 
   53200   0.65220014    300.63671    43100 
   53300   0.65254391    296.99947    43200 
   53400   0.65239507    294.83534    43300 
   53500   0.65147057    298.17281    43400 
   53600   0.65068612    296.19629    43500 
   53700   0.65024657    300.37506    43600 
   53800   0.64971771    302.40508    43700 
   53900   0.64913156    300.59827    43800 
   54000   0.64964869    297.97015    43900 
   54100   0.64998024    297.83477    44000 
   54200   0.65040502    298.68481    44100 
   54300   0.65102337    301.10277    44200 
   54400   0.65101474    299.33766    44300 
   54500   0.65072079    296.82458    44400 
   54600   0.65188987    294.23544    44500 
   54700   0.65329878    300.35296    44600 
   54800   0.65495778    303.60839    44700 
   54900   0.65668707     295.5441    44800 
   55000    0.6574835    297.48237    44900 
   55100   0.65687279     300.8202    45000 
   55200   0.65570002    297.51464    45100 
   55300   0.65395483    300.43543    45200 
   55400   0.65199072     301.6451    45300 
   55500   0.65082474    299.23725    45400 
   55600    0.6500066    295.77432    45500 
   55700    0.6494606     295.1648    45600 
   55800   0.64987353    296.18885    45700 
   55900   0.65014815    296.76243    45800 
   56000   0.65019617    298.23988    45900 
   56100   0.65016817    300.09874    46000 
   56200   0.64987285    297.19511    46100 
   56300   0.64977964    292.82615    46200 
   56400   0.65036042    297.66823    46300 
   56500   0.65252019    300.21815    46400 
   56600   0.65436713    300.08242    46500 
   56700   0.65533879    301.04132    46600 
   56800   0.65584195    301.20824    46700 
   56900   0.65669425    295.91068    46800 
   57000   0.65812469    295.33356    46900 
   57100   0.65899357    296.64109    47000 
   57200   0.65803163    301.55534    47100 
   57300   0.65554072    300.01197    47200 
   57400   0.65254019    291.99192    47300 
   57500   0.65031389    293.57528    47400 
   57600   0.64977409    301.76006    47500 
   57700   0.65014428    298.30616    47600 
   57800   0.65019608    300.75514    47700 
   57900   0.65043753    297.08072    47800 
   58000   0.65071353    299.32665    47900 
   58100   0.65155123    299.24656    48000 
   58200   0.65165505    305.50187    48100 
   58300   0.65191138    300.15801    48200 
   58400    0.6522445    297.36656    48300 
   58500   0.65192861     298.3972    48400 
   58600   0.65267223    293.72501    48500 
   58700   0.65386033    297.17571    48600 
   58800   0.65429577    300.56718    48700 
   58900   0.65460402    299.23711    48800 
   59000    0.6537659    296.14911    48900 
   59100   0.65299696    297.92165    49000 
   59200   0.65320956    295.79677    49100 
   59300   0.65341661    301.35626    49200 
   59400   0.65300617     302.8388    49300 
   59500   0.65183258    299.26532    49400 
   59600   0.65150238    296.32153    49500 
   59700   0.65190695    296.68793    49600 
   59800   0.65315768     296.4936    49700 
   59900   0.65359037    299.06145    49800 
   60000   0.65271672     300.8206    49900 
   60100   0.65133735    298.22802    50000 
Loop time of 570.73 on 1 procs for 50000 steps with 8232 atoms

Performance: 7.569 ns/day, 3.171 hours/ns, 87.607 timesteps/s
93.8% CPU use with 1 MPI tasks x 1 OpenMP threads

MPI task timing breakdown:
Section |  min time  |  avg time  |  max time  |%varavg| %total
---------------------------------------------------------------
Pair    | 433.95     | 433.95     | 433.95     |   0.0 | 76.03
Bond    | 81.266     | 81.266     | 81.266     |   0.0 | 14.24
Neigh   | 25.026     | 25.026     | 25.026     |   0.0 |  4.38
Comm    | 5.3018     | 5.3018     | 5.3018     |   0.0 |  0.93
Output  | 4.7917     | 4.7917     | 4.7917     |   0.0 |  0.84
Modify  | 17.75      | 17.75      | 17.75      |   0.0 |  3.11
Other   |            | 2.646      |            |       |  0.46

Nlocal:    8232 ave 8232 max 8232 min
Histogram: 1 0 0 0 0 0 0 0 0 0
Nghost:    11590 ave 11590 max 11590 min
Histogram: 1 0 0 0 0 0 0 0 0 0
Neighs:    679798 ave 679798 max 679798 min
Histogram: 1 0 0 0 0 0 0 0 0 0

Total # of neighbors = 679798
Ave neighs/atom = 82.5799
Ave special neighs/atom = 4
Neighbor list builds = 879
Dangerous builds = 0

unfix NPT


fix NPT2 all npt temp ${Temp} ${Temp} $(100*dt) iso 1.0 1.0 $(1000*dt)
fix NPT2 all npt temp 298 ${Temp} $(100*dt) iso 1.0 1.0 $(1000*dt)
fix NPT2 all npt temp 298 298 $(100*dt) iso 1.0 1.0 $(1000*dt)
fix NPT2 all npt temp 298 298 0.10000000000000000555 iso 1.0 1.0 $(1000*dt)
fix NPT2 all npt temp 298 298 0.10000000000000000555 iso 1.0 1.0 1

run 100000
Per MPI rank memory allocation (min/avg/max) = 20.18 | 20.18 | 20.18 Mbytes
Step Density Temp Elapsed 
   60100   0.65133735    298.22802        0 
   60200   0.65115952    297.39078      100 
   60300   0.65100295    297.59906      200 
   60400   0.65118051    295.98571      300 
   60500   0.65249019    296.76802      400 
   60600    0.6542221    299.23651      500 
   60700   0.65385042    298.90598      600 
   60800   0.65211865    298.50426      700 
   60900   0.65012145    294.41542      800 
   61000   0.64923818    295.65276      900 
   61100   0.64877367    296.90148     1000 
   61200   0.64795944    302.50317     1100 
   61300   0.64787278    298.68935     1200 
   61400   0.64861881    294.99605     1300 
   61500   0.65023864    296.95488     1400 
   61600   0.65082551    295.13615     1500 
   61700   0.65004827    297.74146     1600 
   61800   0.64792867    300.83971     1700 
   61900    0.6447984     296.7963     1800 
   62000    0.6413755     294.2153     1900 
   62100   0.63939378    299.84361     2000 
   62200   0.63957196     299.9789     2100 
   62300   0.64064923    295.57417     2200 
   62400   0.64065748    296.88463     2300 
   62500   0.63971348     292.2806     2400 
   62600   0.63872952    295.65939     2500 
   62700   0.63924978    295.91024     2600 
   62800    0.6408773    298.12983     2700 
   62900   0.64267531    299.50565     2800 
   63000   0.64412952    301.63011     2900 
   63100   0.64478105    296.44057     3000 
   63200   0.64538986     293.5785     3100 
   63300   0.64562694    297.57815     3200 
   63400   0.64583153    298.93779     3300 
   63500    0.6458295    299.10579     3400 
   63600   0.64533603    300.34797     3500 
   63700    0.6450541    296.41889     3600 
   63800   0.64546458    292.05761     3700 
   63900   0.64625007    288.76156     3800 
   64000   0.64723381    295.47789     3900 
   64100   0.64778597    298.50627     4000 
   64200   0.64696356    298.54593     4100 
   64300   0.64523587    300.81523     4200 
   64400   0.64242073    294.20181     4300 
   64500   0.64030008    294.72118     4400 
   64600   0.63928923    301.33458     4500 
   64700   0.63928029    304.87165     4600 
   64800   0.63960698    303.58518     4700 
   64900   0.63983352    292.81601     4800 
   65000   0.63976002    294.57815     4900 
   65100   0.64089051    296.54972     5000 
   65200   0.64339703    300.19879     5100 
   65300   0.64557465    297.32752     5200 
   65400   0.64698618    293.13346     5300 
   65500   0.64743981    292.93014     5400 
   65600   0.64653119    296.90575     5500 
   65700   0.64573996    300.39186     5600 
   65800    0.6462638    299.14965     5700 
   65900   0.64729519    297.65631     5800 
   66000   0.64796977    296.46346     5900 
   66100   0.64862823    299.70205     6000 
   66200   0.64846291     297.3921     6100 
   66300   0.64850383    296.35164     6200 
   66400   0.64869229     294.4675     6300 
   66500   0.64792766    296.35828     6400 
   66600   0.64787048    298.01617     6500 
   66700   0.64728397    298.93085     6600 
   66800   0.64576503    302.86956     6700 
   66900   0.64461152    294.94904     6800 
   67000   0.64417092    297.23938     6900 
   67100   0.64502408    302.06341     7000 
   67200   0.64723392    294.61785     7100 
   67300   0.64994673    298.44537     7200 
   67400   0.65235283      297.884     7300 
   67500   0.65403841    299.38051     7400 
   67600   0.65370618    301.12875     7500 
   67700   0.65207707    300.16015     7600 
   67800   0.65023001    297.68247     7700 
   67900   0.64827416    299.03451     7800 
   68000   0.64766229    298.85444     7900 
   68100   0.64634178    298.67706     8000 
   68200   0.64498425     298.7834     8100 
   68300   0.64398502    298.83357     8200 
   68400   0.64463069    298.31267     8300 
   68500   0.64593698      296.013     8400 
   68600   0.64796316    296.41475     8500 
   68700    0.6502355    300.78566     8600 
   68800    0.6526008     298.0813     8700 
   68900   0.65369619    295.02814     8800 
   69000   0.65307054    298.53221     8900 
   69100   0.65046067    297.38183     9000 
   69200   0.64715878    301.57473     9100 
   69300   0.64495475    301.87292     9200 
   69400   0.64392676    298.49085     9300 
   69500   0.64431492     295.6036     9400 
   69600    0.6451887     295.2706     9500 
   69700   0.64579555      301.499     9600 
   69800   0.64552658    301.48434     9700 
   69900   0.64468513    296.55808     9800 
   70000    0.6446596    297.13776     9900 
   70100   0.64535599    298.01416    10000 
   70200   0.64641978    300.39977    10100 
   70300   0.64646483    300.16195    10200 
   70400   0.64535778    294.83155    10300 
   70500   0.64393747     292.2579    10400 
   70600   0.64282295    296.43208    10500 
   70700   0.64239536    300.49197    10600 
   70800   0.64291367    296.46915    10700 
   70900   0.64358444    297.51797    10800 
   71000   0.64376735    298.33086    10900 
   71100   0.64424309    297.69441    11000 
   71200   0.64589254    296.96815    11100 
   71300   0.64886237     293.6558    11200 
   71400   0.65048344    301.75245    11300 
   71500   0.64974305    298.45933    11400 
   71600   0.64782895    297.26305    11500 
   71700   0.64613433    296.56756    11600 
   71800   0.64598889    297.27918    11700 
   71900   0.64761824    300.25735    11800 
   72000   0.64924961    301.29741    11900 
   72100   0.64995063    304.40961    12000 
   72200   0.64859179    299.32452    12100 
   72300   0.64594646     299.4943    12200 
   72400   0.64433143    295.53576    12300 
   72500   0.64422079    301.49558    12400 
   72600   0.64594156     297.3266    12500 
   72700   0.64714294    300.62259    12600 
   72800   0.64781592    296.97079    12700 
   72900   0.64853286    293.88801    12800 
   73000   0.64950428    297.90219    12900 
   73100      0.64987     299.1987    13000 
   73200   0.64910929    298.39383    13100 
   73300   0.64654659    296.55901    13200 
   73400   0.64316803    291.22135    13300 
   73500   0.64052147    296.49261    13400 
   73600   0.63994969    298.63829    13500 
   73700   0.64122853    298.46084    13600 
   73800   0.64270633    298.38092    13700 
   73900   0.64308835    297.73188    13800 
   74000   0.64354568     292.6265    13900 
   74100   0.64410836    294.12669    14000 
   74200   0.64488727    298.17069    14100 
   74300   0.64610484    300.64008    14200 
   74400   0.64767054    299.70071    14300 
   74500   0.64854002    296.33388    14400 
   74600   0.64906826    299.28552    14500 
   74700    0.6493748    298.87163    14600 
   74800   0.64900145    300.42047    14700 
   74900   0.64883815    294.58555    14800 
   75000   0.64787308    293.90036    14900 
   75100   0.64683907     295.8832    15000 
   75200   0.64704086     301.9595    15100 
   75300   0.64770317    301.43438    15200 
   75400   0.64898152    294.50187    15300 
   75500   0.64966337    295.01973    15400 
   75600     0.650927    296.58744    15500 
   75700    0.6516464    296.54082    15600 
   75800   0.65147731    296.47379    15700 
   75900   0.65033059    300.81833    15800 
   76000    0.6494372    295.14995    15900 
   76100   0.64902991    291.51926    16000 
   76200   0.64935355     294.4495    16100 
   76300   0.65005537    297.61416    16200 
   76400   0.65139838    298.01559    16300 
   76500   0.65203045    298.36912    16400 
   76600   0.65092815    297.53168    16500 
   76700   0.64893892    299.03934    16600 
   76800   0.64703505    298.40473    16700 
   76900   0.64549837    294.94948    16800 
   77000   0.64530974     289.2893    16900 
   77100   0.64576725    296.95064    17000 
   77200   0.64675823    301.82506    17100 
   77300   0.64895264    301.08201    17200 
   77400   0.64997484    297.08919    17300 
   77500   0.64994374     295.4231    17400 
   77600   0.64971564    292.88588    17500 
   77700   0.64935146    296.98797    17600 
   77800   0.64985225    302.35245    17700 
   77900   0.65021376    300.16786    17800 
   78000   0.64980124    301.31541    17900 
   78100   0.64955182    298.62115    18000 
   78200   0.64849691    300.74141    18100 
   78300   0.64837709    298.94947    18200 
   78400   0.64908562    293.95514    18300 
   78500   0.64980953    295.46999    18400 
   78600   0.65000515    299.54735    18500 
   78700   0.64910747    295.64503    18600 
   78800   0.64696279    298.58345    18700 
   78900   0.64497019    295.60541    18800 
   79000   0.64476717    291.43068    18900 
   79100   0.64645499    299.16642    19000 
   79200   0.64877148    298.38695    19100 
   79300   0.65082972    299.67578    19200 
   79400   0.65195119     296.4241    19300 
   79500   0.65217831    296.82588    19400 
   79600    0.6519081    300.48247    19500 
   79700   0.65148328    296.49681    19600 
   79800   0.65147433    294.84221    19700 
   79900   0.65091023    296.04689    19800 
   80000   0.65013619    298.95966    19900 
   80100   0.64953169    300.94761    20000 
   80200   0.64774557     302.7537    20100 
   80300    0.6464158    299.53923    20200 
   80400    0.6461286    296.99897    20300 
   80500   0.64716275     296.0252    20400 
   80600   0.64900913    302.15582    20500 
   80700   0.64935576    300.43435    20600 
   80800   0.64728302    298.86238    20700 
   80900   0.64471619     295.1668    20800 
   81000    0.6426991     296.4898    20900 
   81100     0.641455    299.82127    21000 
   81200    0.6416744    297.05286    21100 
   81300   0.64235125    302.69446    21200 
   81400    0.6436946    297.31402    21300 
   81500   0.64527864    297.56914    21400 
   81600   0.64622363      298.248    21500 
   81700    0.6468194    301.77592    21600 
   81800   0.64679397    303.83014    21700 
   81900   0.64599762    301.80276    21800 
   82000   0.64641039    299.73997    21900 
   82100   0.64752299    299.52557    22000 
   82200   0.64955399    295.29668    22100 
   82300   0.65151205    295.62052    22200 
   82400   0.65286072    301.67851    22300 
   82500   0.65283042    301.80758    22400 
   82600   0.65168917    294.79656    22500 
   82700   0.65031923    295.56739    22600 
   82800   0.64904871    296.94158    22700 
   82900   0.64838216    297.14765    22800 
   83000   0.64872406    301.48104    22900 
   83100   0.64882798    297.07356    23000 
   83200   0.64746529    299.21651    23100 
   83300   0.64608602    294.95314    23200 
   83400    0.6458328    296.97166    23300 
   83500   0.64718945    299.45337    23400 
   83600   0.64935938     300.5043    23500 
   83700   0.65062841    301.45205    23600 
   83800   0.65087147    299.20259    23700 
   83900   0.64966353    297.03911    23800 
   84000   0.64833078    296.08261    23900 
   84100   0.64796024    302.33166    24000 
   84200   0.64843357    303.03442    24100 
   84300   0.64959082    298.39333    24200 
   84400    0.6504145    298.69752    24300 
   84500   0.65174194     297.7073    24400 
   84600    0.6526771    300.71821    24500 
   84700   0.65267956    302.37718    24600 
   84800   0.65141136    300.74965    24700 
   84900   0.64997976    298.50102    24800 
   85000   0.64925766    297.55921    24900 
   85100   0.64906966    297.19999    25000 
   85200   0.64913852    298.00466    25100 
   85300   0.64929804    299.24825    25200 
   85400   0.64991585    296.52082    25300 
   85500   0.65078982     296.7646    25400 
   85600   0.65056211    300.01625    25500 
   85700    0.6502305    298.85652    25600 
   85800   0.64974691    301.99638    25700 
   85900   0.65023317    293.95901    25800 
   86000   0.65054771    294.20994    25900 
   86100   0.65116834    297.19187    26000 
   86200   0.65065299    301.06175    26100 
   86300   0.65024461    298.66644    26200 
   86400   0.64964272     300.8193    26300 
   86500   0.64914507    294.53605    26400 
   86600    0.6491656    291.49574    26500 
   86700    0.6494479    299.38155    26600 
   86800   0.65048112    300.89844    26700 
   86900   0.65154666    295.31769    26800 
   87000   0.65101865    297.35664    26900 
   87100   0.64843402    298.46244    27000 
   87200   0.64573119    303.12479    27100 
   87300    0.6439186    303.54028    27200 
   87400   0.64385329    298.04095    27300 
   87500   0.64486955    297.35251    27400 
   87600    0.6463224    296.40104    27500 
   87700   0.64786769    297.61763    27600 
   87800   0.64887952    304.70824    27700 
   87900   0.64945015    303.23918    27800 
   88000   0.64877181    299.20945    27900 
   88100   0.64706984    297.00461    28000 
   88200   0.64444551    298.65009    28100 
   88300   0.64152799     299.9574    28200 
   88400    0.6394406    297.92939    28300 
   88500     0.638148     299.4644    28400 
   88600   0.63869972    298.42358    28500 
   88700   0.64119175    293.92232    28600 
   88800   0.64437306    294.40626    28700 
   88900   0.64764381    298.09061    28800 
   89000   0.64923836    300.07626    28900 
   89100    0.6496329    299.42521    29000 
   89200   0.64993886    295.81573    29100 
   89300   0.64936531    297.12146    29200 
   89400   0.64964938    297.13194    29300 
   89500   0.65042415    299.28632    29400 
   89600   0.65150558    299.17923    29500 
   89700   0.65236582    296.00496    29600 
   89800   0.65259818    297.78622    29700 
   89900   0.65366494    294.76594    29800 
   90000   0.65474233    299.23794    29900 
   90100   0.65479147    302.70479    30000 
   90200   0.65444766    296.87259    30100 
   90300   0.65172914    298.58312    30200 
   90400    0.6483634    298.70565    30300 
   90500   0.64664562     294.5058    30400 
   90600   0.64708545    291.44297    30500 
   90700   0.64879858    297.12394    30600 
   90800   0.65076672    301.68292    30700 
   90900    0.6509956    297.66116    30800 
   91000   0.64969184    297.13386    30900 
   91100    0.6488202    298.78276    31000 
   91200    0.6480197    295.13656    31100 
   91300   0.64773174    298.99505    31200 
   91400   0.64889877    300.22055    31300 
   91500   0.65034511     300.3596    31400 
   91600   0.65111996    301.56008    31500 
   91700   0.65120301    296.19086    31600 
   91800   0.65169815    298.01696    31700 
   91900   0.65266437    298.57978    31800 
   92000   0.65450122    295.58556    31900 
   92100   0.65551918    296.99386    32000 
   92200   0.65517224    296.15464    32100 
   92300   0.65314995    296.78478    32200 
   92400   0.65015998    300.03052    32300 
   92500   0.64721797    300.90082    32400 
   92600   0.64511384    295.33241    32500 
   92700   0.64469664    293.74797    32600 
   92800   0.64542052    295.11836    32700 
   92900   0.64671558    296.79709    32800 
   93000   0.64753653    296.68071    32900 
   93100   0.64726002     295.7848    33000 
   93200   0.64684796    296.10224    33100 
   93300   0.64674548    294.05124    33200 
   93400    0.6468608    297.62095    33300 
   93500   0.64711114    300.46066    33400 
   93600   0.64851225    300.26004    33500 
   93700   0.64928621    298.59613    33600 
   93800   0.64818021    298.48837    33700 
   93900   0.64695501    297.70293    33800 
   94000   0.64598742    296.65706    33900 
   94100   0.64533032    296.08069    34000 
   94200    0.6445577    298.29289    34100 
   94300   0.64410234    300.97059    34200 
   94400   0.64368035    294.45728    34300 
   94500   0.64277711    295.13678    34400 
   94600   0.64237565    298.58814    34500 
   94700   0.64236322    299.80786    34600 
   94800   0.64313167    297.36871    34700 
   94900   0.64442275    295.70781    34800 
   95000   0.64594362    296.56218    34900 
   95100   0.64799967    302.64996    35000 
   95200   0.64921631    300.84857    35100 
   95300   0.64903385    297.97117    35200 
   95400   0.64728986    295.14195    35300 
   95500   0.64583025    294.84306    35400 
   95600   0.64677277    293.60267    35500 
   95700   0.64883866    296.68729    35600 
   95800   0.65120864    297.97211    35700 
   95900   0.65167238    297.29518    35800 
   96000   0.65046655    297.39306    35900 
   96100   0.64938648    296.42154    36000 
   96200   0.64817531    297.20355    36100 
   96300   0.64811857    300.02206    36200 
   96400    0.6488486    299.28212    36300 
   96500   0.64982846     298.6779    36400 
   96600   0.65123758    298.62203    36500 
   96700   0.65207992    297.63088    36600 
   96800   0.65226751    297.87383    36700 
   96900    0.6526545    299.82063    36800 
   97000   0.65295103    301.10911    36900 
   97100   0.65293372    297.49714    37000 
   97200   0.65225225    293.12507    37100 
   97300    0.6504417    296.68409    37200 
   97400   0.64995833    298.09053    37300 
   97500   0.64995921     296.6291    37400 
   97600   0.65043286    296.40303    37500 
   97700   0.65144255    296.13581    37600 
   97800   0.65263337    293.68022    37700 
   97900   0.65362291    295.25968    37800 
   98000   0.65443273    297.73862    37900 
   98100   0.65307873    299.31791    38000 
   98200   0.65056101    298.70544    38100 
   98300   0.64966664     294.1595    38200 
   98400    0.6492804    293.86058    38300 
   98500   0.65039233    296.95472    38400 
   98600   0.65126564    301.58129    38500 
   98700   0.65193765    298.90863    38600 
   98800    0.6529489     294.0127    38700 
   98900    0.6536464    295.89699    38800 
   99000   0.65468784    297.73392    38900 
   99100    0.6553795    297.76428    39000 
   99200   0.65526365    299.43001    39100 
   99300   0.65416232    299.63334    39200 
   99400   0.65254824     295.7568    39300 
   99500   0.65060704    296.35681    39400 
   99600   0.64885752     302.4214    39500 
   99700   0.64801598    302.01987    39600 
   99800   0.64819658     297.2769    39700 
   99900   0.64943997    293.39823    39800 
  100000   0.65158844    295.28082    39900 
  100100    0.6539573    299.24391    40000 
  100200   0.65540674    301.65847    40100 
  100300   0.65555623    299.83454    40200 
  100400   0.65525867    293.43717    40300 
  100500   0.65396626    297.18937    40400 
  100600   0.65257782    300.58581    40500 
  100700   0.65205921    296.77489    40600 
  100800     0.652144    297.60863    40700 
  100900   0.65243991    294.41243    40800 
  101000    0.6531853    298.01086    40900 
  101100   0.65381182    299.85573    41000 
  101200    0.6544938    302.28983    41100 
  101300   0.65434217    298.99276    41200 
  101400   0.65355957     298.6246    41300 
  101500   0.65403879    296.87119    41400 
  101600   0.65543719    294.63354    41500 
  101700   0.65651264    299.73347    41600 
  101800   0.65720625    300.42624    41700 
  101900   0.65743781    296.21727    41800 
  102000   0.65736511    291.44411    41900 
  102100   0.65773258    294.57922    42000 
  102200   0.65845927    300.56926    42100 
  102300   0.65883834    298.26995    42200 
  102400   0.65814289     297.3234    42300 
  102500   0.65711077    297.65481    42400 
  102600    0.6575552    296.37436    42500 
  102700   0.65947721     293.7609    42600 
  102800   0.66169714    295.93058    42700 
  102900   0.66189741    302.10259    42800 
  103000   0.66074401    297.92363    42900 
  103100   0.65894634    296.87269    43000 
  103200    0.6571821    293.56847    43100 
  103300    0.6564818    297.07818    43200 
  103400   0.65614413    301.37262    43300 
  103500   0.65594104    300.89738    43400 
  103600   0.65581473    299.18688    43500 
  103700    0.6555139    297.75331    43600 
  103800   0.65594426     295.5715    43700 
  103900   0.65604886    293.77417    43800 
  104000   0.65535728    300.20215    43900 
  104100   0.65436471    297.60669    44000 
  104200   0.65360104    296.08462    44100 
  104300    0.6536074    298.90197    44200 
  104400   0.65514578    300.37714    44300 
  104500   0.65643793    298.32452    44400 
  104600   0.65751827    298.60023    44500 
  104700   0.65795008     295.1107    44600 
  104800    0.6580048    296.55065    44700 
  104900   0.65688409    299.58391    44800 
  105000   0.65385275     304.0156    44900 
  105100   0.65169687    296.12904    45000 
  105200   0.65115989    295.62984    45100 
  105300   0.65158406    299.27073    45200 
  105400   0.65210705    300.82809    45300 
  105500   0.65241612    300.41663    45400 
  105600   0.65446714    295.21514    45500 
  105700   0.65688449    296.21222    45600 
  105800   0.65760141     302.0895    45700 
  105900   0.65756347    300.34479    45800 
  106000   0.65661066    297.94677    45900 
  106100   0.65621222    296.43212    46000 
  106200   0.65666887    297.61738    46100 
  106300   0.65720663    300.05096    46200 
  106400   0.65665886    299.75001    46300 
  106500   0.65583668    295.09498    46400 
  106600   0.65434128    296.41176    46500 
  106700    0.6531518    298.86815    46600 
  106800   0.65283751    299.61327    46700 
  106900   0.65258813    299.85458    46800 
  107000   0.65248055    300.44904    46900 
  107100   0.65403615    299.18246    47000 
  107200   0.65644005    301.84159    47100 
  107300   0.65821849    296.84675    47200 
  107400   0.65930506    296.59639    47300 
  107500   0.66024984    296.20519    47400 
  107600   0.66036442    296.96544    47500 
  107700   0.65919609    301.52865    47600 
  107800   0.65700186    299.37729    47700 
  107900   0.65442485    298.18265    47800 
  108000   0.65324747     295.5521    47900 
  108100   0.65363805    297.27863    48000 
  108200   0.65460826    303.41649    48100 
  108300   0.65663934    298.33384    48200 
  108400   0.65852808    296.19403    48300 
  108500   0.65982544    299.48369    48400 
  108600   0.65999937    298.90378    48500 
  108700   0.65888763    303.53438    48600 
  108800   0.65740733     298.3534    48700 
  108900    0.6559415    293.53638    48800 
  109000   0.65412725    298.37913    48900 
  109100   0.65292283    301.86599    49000 
  109200   0.65318134    298.28341    49100 
  109300     0.652805    294.14677    49200 
  109400   0.65188279    301.85296    49300 
  109500   0.65094653     302.3827    49400 
  109600   0.65037743    298.58692    49500 
  109700   0.65075384    298.49771    49600 
  109800   0.65207541    299.16995    49700 
  109900   0.65441794    301.89003    49800 
  110000   0.65654846    299.63273    49900 
  110100   0.65852304    294.18081    50000 
  110200   0.66005796    298.75779    50100 
  110300     0.660458    298.54831    50200 
  110400   0.65983322    303.54636    50300 
  110500   0.65870386    297.28511    50400 
  110600   0.65672942    298.25069    50500 
  110700    0.6559104    297.24684    50600 
  110800   0.65644584    299.93644    50700 
  110900   0.65732184    301.23385    50800 
  111000   0.65831945    295.33987    50900 
  111100   0.65890537    297.02539    51000 
  111200   0.65890072    298.33416    51100 
  111300   0.65853592    299.44703    51200 
  111400    0.6578578    299.50438    51300 
  111500   0.65746003    304.72236    51400 
  111600   0.65646813    303.50116    51500 
  111700   0.65521659    292.28898    51600 
  111800   0.65396895    292.99479    51700 
  111900   0.65248948    301.40373    51800 
  112000   0.65132835    301.53271    51900 
  112100   0.65057466    297.95202    52000 
  112200   0.65056981    299.16108    52100 
  112300   0.65145757    301.47119    52200 
  112400   0.65269677    299.24446    52300 
  112500   0.65358339    296.82991    52400 
  112600   0.65374614    296.12161    52500 
  112700   0.65329818    299.28133    52600 
  112800   0.65276459    297.53406    52700 
  112900   0.65231608    301.88137    52800 
  113000   0.65226931    299.35263    52900 
  113100   0.65164101     296.0994    53000 
  113200   0.65092845    298.50461    53100 
  113300   0.65086159    298.48827    53200 
  113400   0.65100122    298.76258    53300 
  113500   0.65093035    304.53092    53400 
  113600   0.65078472    306.36528    53500 
  113700   0.65095926    299.45165    53600 
  113800    0.6513165    298.84381    53700 
  113900   0.65217864     296.9818    53800 
  114000   0.65250973    295.48238    53900 
  114100   0.65217095    296.50396    54000 
  114200   0.65158522    300.33512    54100 
  114300   0.65100653    302.32363    54200 
  114400   0.65020591    299.25522    54300 
  114500   0.65011082    299.13414    54400 
  114600   0.65124685     297.9892    54500 
  114700    0.6524067    299.94422    54600 
  114800   0.65315933    300.35855    54700 
  114900   0.65285277    301.01829    54800 
  115000   0.65251267    298.63545    54900 
  115100    0.6526325    295.52392    55000 
  115200   0.65297501    296.37194    55100 
  115300   0.65274076    299.94856    55200 
  115400   0.65092726     303.1767    55300 
  115500   0.64956404    299.88193    55400 
  115600   0.64999874    297.52443    55500 
  115700   0.65089429    294.41257    55600 
  115800   0.65165916    300.59103    55700 
  115900   0.65241154      304.923    55800 
  116000   0.65336363    297.22812    55900 
  116100   0.65504547    297.28844    56000 
  116200   0.65667621    297.02131    56100 
  116300   0.65781064    299.49005    56200 
  116400   0.65749914    301.91853    56300 
  116500   0.65641338    301.01093    56400 
  116600   0.65519177    297.78135    56500 
  116700   0.65484527    293.81503    56600 
  116800   0.65523907     297.1963    56700 
  116900   0.65526655      299.309    56800 
  117000   0.65486993    300.01935    56900 
  117100   0.65330226    298.37236    57000 
  117200   0.65271061    293.60029    57100 
  117300   0.65397806     291.3044    57200 
  117400   0.65576229    293.14094    57300 
  117500   0.65736309     300.7526    57400 
  117600   0.65769378    302.74194    57500 
  117700   0.65779433     293.2544    57600 
  117800   0.65740694     295.9386    57700 
  117900   0.65751902    301.42015    57800 
  118000   0.65753653    302.95572    57900 
  118100   0.65687158    299.13843    58000 
  118200   0.65664631    297.62977    58100 
  118300   0.65727072    294.73514    58200 
  118400    0.6582091    296.54496    58300 
  118500    0.6590282    299.27066    58400 
  118600    0.6595869    296.82487    58500 
  118700     0.660589    296.51057    58600 
  118800   0.66160634    298.05793    58700 
  118900   0.66238541    298.94223    58800 
  119000   0.66249225    294.24063    58900 
  119100   0.66083977    299.94921    59000 
  119200   0.65873339    300.13804    59100 
  119300   0.65794756    295.65364    59200 
  119400   0.65794689    296.94369    59300 
  119500    0.6586094    297.97404    59400 
  119600   0.66025661    299.27701    59500 
  119700    0.6620217    297.26697    59600 
  119800   0.66333256    293.86252    59700 
  119900   0.66377048    295.47883    59800 
  120000   0.66427892    297.16188    59900 
  120100   0.66416907    294.97143    60000 
  120200   0.66299483    297.00928    60100 
  120300   0.66125575    300.41247    60200 
  120400   0.65965874    296.83192    60300 
  120500   0.65846527    301.71609    60400 
  120600   0.65800077     301.3341    60500 
  120700   0.65825656    300.05428    60600 
  120800    0.6592942     300.8122    60700 
  120900   0.66140893    295.61643    60800 
  121000   0.66266703    296.84208    60900 
  121100   0.66294183    299.53023    61000 
  121200   0.66257713    300.73535    61100 
  121300   0.66192349     294.8612    61200 
  121400   0.66016985    294.35879    61300 
  121500   0.65756297    296.71298    61400 
  121600   0.65574376    300.17455    61500 
  121700   0.65427043    297.08711    61600 
  121800   0.65392948    294.06276    61700 
  121900   0.65419134    298.64363    61800 
  122000   0.65539232    301.34524    61900 
  122100   0.65588774    302.72195    62000 
  122200   0.65575374    299.78583    62100 
  122300   0.65534402    299.10926    62200 
  122400    0.6547494    298.06901    62300 
  122500   0.65458754    299.42257    62400 
  122600   0.65471561    298.90101    62500 
  122700   0.65386527    309.01382    62600 
  122800   0.65379663    298.38972    62700 
  122900   0.65384494    298.22607    62800 
  123000   0.65434533    295.06011    62900 
  123100   0.65517242    296.99851    63000 
  123200   0.65566827    296.86772    63100 
  123300   0.65513757     302.9331    63200 
  123400   0.65338962     298.4155    63300 
  123500   0.65170282    294.59572    63400 
  123600   0.65075839    293.30999    63500 
  123700   0.65035837    296.11319    63600 
  123800   0.65082288    298.20988    63700 
  123900   0.65220368    297.45126    63800 
  124000    0.6540293    297.32545    63900 
  124100   0.65553434    296.01929    64000 
  124200   0.65664714     292.7467    64100 
  124300   0.65775021    293.35445    64200 
  124400   0.65820289    295.05633    64300 
  124500   0.65856722    298.35047    64400 
  124600   0.65781691    298.56525    64500 
  124700     0.655926    297.81783    64600 
  124800   0.65376058     298.6665    64700 
  124900   0.65176543     301.0791    64800 
  125000    0.6507274    304.82029    64900 
  125100   0.65132563    297.47084    65000 
  125200   0.65266368    296.01661    65100 
  125300    0.6541406     298.2813    65200 
  125400   0.65455337    294.30173    65300 
  125500   0.65349394    294.62279    65400 
  125600   0.65171967    296.95519    65500 
  125700   0.65030795     300.9388    65600 
  125800   0.64963354    300.20059    65700 
  125900   0.65037574    295.75029    65800 
  126000   0.65266837    298.57554    65900 
  126100   0.65587304    298.71186    66000 
  126200   0.65727153    299.37876    66100 
  126300   0.65711145    297.40271    66200 
  126400   0.65679781    297.61857    66300 
  126500   0.65638416    297.06306    66400 
  126600   0.65699172    295.54082    66500 
  126700   0.65750208    296.34753    66600 
  126800   0.65891872    298.40685    66700 
  126900   0.66021842    299.46946    66800 
  127000   0.66064788    297.35796    66900 
  127100   0.65998685    294.55704    67000 
  127200   0.65920748    296.17853    67100 
  127300   0.65858184     299.7069    67200 
  127400   0.65815139    301.26218    67300 
  127500    0.6568833    293.83928    67400 
  127600   0.65480326    293.47912    67500 
  127700   0.65326004    299.29902    67600 
  127800   0.65248891    302.35656    67700 
  127900   0.65316854    300.73913    67800 
  128000   0.65478424    299.71673    67900 
  128100   0.65566799    294.09941    68000 
  128200   0.65601227     292.1607    68100 
  128300   0.65492564    298.65651    68200 
  128400      0.65417     298.6659    68300 
  128500   0.65293612    302.40065    68400 
  128600   0.65207943     297.3189    68500 
  128700   0.65129007     297.9225    68600 
  128800   0.65075725    295.12331    68700 
  128900   0.65187172    290.67645    68800 
  129000   0.65254065    301.14925    68900 
  129100   0.65300405    299.38215    69000 
  129200   0.65347586    297.80823    69100 
  129300   0.65495409    297.27863    69200 
  129400   0.65719743    296.72842    69300 
  129500    0.6590138    294.21917    69400 
  129600   0.65902861    296.74757    69500 
  129700   0.65709852     296.9945    69600 
  129800   0.65429615    291.31064    69700 
  129900   0.65234447    293.11954    69800 
  130000   0.65201745    293.89277    69900 
  130100   0.65122712    295.90119    70000 
  130200   0.65014124    298.87429    70100 
  130300   0.64917996    296.18579    70200 
  130400   0.64860911    298.14804    70300 
  130500   0.64911515    295.82704    70400 
  130600   0.65073382    294.54146    70500 
  130700   0.65272684    297.81287    70600 
  130800   0.65458319    304.29059    70700 
  130900   0.65699332    299.75269    70800 
  131000   0.65813709    299.22648    70900 
  131100   0.65832888    298.10946    71000 
  131200    0.6574392    296.79854    71100 
  131300   0.65510214    298.95819    71200 
  131400   0.65232993    302.26929    71300 
  131500   0.64951572    298.66979    71400 
  131600   0.64865825    299.48152    71500 
  131700   0.64986684    296.04848    71600 
  131800   0.65232112    292.20386    71700 
  131900    0.6543886    301.15002    71800 
  132000   0.65598731    300.72398    71900 
  132100   0.65744069    293.92814    72000 
  132200   0.65810161     294.1715    72100 
  132300    0.6584715     299.8672    72200 
  132400   0.65846257    300.41536    72300 
  132500    0.6583391    297.89911    72400 
  132600   0.65821802    291.18557    72500 
  132700   0.65742045    294.72308    72600 
  132800   0.65655503    299.57646    72700 
  132900   0.65515373    300.19914    72800 
  133000   0.65407889    299.12771    72900 
  133100   0.65356343    301.33716    73000 
  133200   0.65464886    298.76159    73100 
  133300    0.6569039    296.32089    73200 
  133400   0.65966889    293.70308    73300 
  133500   0.66105567    299.87983    73400 
  133600   0.66052338    299.02188    73500 
  133700   0.65899337    298.92908    73600 
  133800   0.65693843    295.89002    73700 
  133900   0.65526564    298.98357    73800 
  134000   0.65485441    299.22029    73900 
  134100   0.65479141    298.01162    74000 
  134200   0.65391647    296.14946    74100 
  134300   0.65235415    299.52724    74200 
  134400   0.65143308    296.43887    74300 
  134500   0.65164887    294.85963    74400 
  134600   0.65241812    301.44018    74500 
  134700    0.6535464    299.59949    74600 
  134800   0.65447874    298.82338    74700 
  134900   0.65551355    298.34481    74800 
  135000   0.65735468    298.04803    74900 
  135100   0.65992753    296.80999    75000 
  135200   0.66209423    297.24632    75100 
  135300   0.66335297    294.97226    75200 
  135400   0.66339526    297.69717    75300 
  135500   0.66256102    297.65271    75400 
  135600   0.66161963    299.36348    75500 
  135700   0.66090348    294.88094    75600 
  135800   0.66077543    297.16181    75700 
  135900   0.66059003    300.63187    75800 
  136000    0.6603279    297.61761    75900 
  136100   0.65941002    297.91644    76000 
  136200   0.65833126    296.72102    76100 
  136300   0.65746695    296.68454    76200 
  136400   0.65725278    300.74159    76300 
  136500   0.65708155    300.10721    76400 
  136600   0.65705004    292.69412    76500 
  136700   0.65661656    293.20096    76600 
  136800   0.65642078    297.06697    76700 
  136900   0.65705276    298.70672    76800 
  137000   0.65684038    298.89114    76900 
  137100   0.65693216    299.48392    77000 
  137200     0.657552    295.70998    77100 
  137300   0.65818082    295.18908    77200 
  137400    0.6593165    298.17023    77300 
  137500   0.65957372     299.1474    77400 
  137600   0.65851713    300.27158    77500 
  137700   0.65688578    295.98558    77600 
  137800   0.65602726    291.85302    77700 
  137900    0.6565701    297.45644    77800 
  138000   0.65701286    297.89161    77900 
  138100   0.65788695    300.65751    78000 
  138200   0.65879023    299.43839    78100 
  138300   0.66112324    296.08517    78200 
  138400   0.66401327    297.85681    78300 
  138500    0.6659014    297.81423    78400 
  138600   0.66695676    300.47044    78500 
  138700   0.66645925    298.60365    78600 
  138800    0.6658634    296.08609    78700 
  138900   0.66626194    295.91716    78800 
  139000   0.66660482    297.54398    78900 
  139100   0.66664627    300.55743    79000 
  139200   0.66658103    300.56929    79100 
  139300    0.6666697    290.95075    79200 
  139400   0.66612139    294.06155    79300 
  139500   0.66549301    294.72993    79400 
  139600   0.66548424     296.3953    79500 
  139700   0.66496776    298.08386    79600 
  139800   0.66419548    299.19253    79700 
  139900   0.66375312    300.39105    79800 
  140000   0.66333688    298.86216    79900 
  140100   0.66289941     296.3791    80000 
  140200   0.66212637    295.22907    80100 
  140300   0.66178884    298.97468    80200 
  140400   0.66104844     302.7991    80300 
  140500   0.66059769    299.52612    80400 
  140600   0.66104169    295.88839    80500 
  140700   0.66125086    295.27293    80600 
  140800    0.6615024    298.58059    80700 
  140900   0.66149253    301.45012    80800 
  141000   0.66136179    297.81837    80900 
  141100   0.66070226    294.26878    81000 
  141200   0.66040712    295.68101    81100 
  141300   0.66067076    300.39015    81200 
  141400   0.66114852    297.99844    81300 
  141500   0.65978634    300.64934    81400 
  141600   0.65722679    295.80814    81500 
  141700   0.65437661    294.49898    81600 
  141800   0.65275066    293.12773    81700 
  141900   0.65205253    298.94089    81800 
  142000   0.65332577    298.36691    81900 
  142100   0.65461793    298.76532    82000 
  142200   0.65527306    296.85084    82100 
  142300   0.65547109    292.93551    82200 
  142400   0.65467909    296.01567    82300 
  142500   0.65350113     300.2201    82400 
  142600   0.65329635    297.14593    82500 
  142700   0.65327567    298.75111    82600 
  142800   0.65373238    295.91745    82700 
  142900   0.65536379    294.00099    82800 
  143000   0.65722529    303.46174    82900 
  143100   0.65964997    301.41235    83000 
  143200   0.66129861    300.11885    83100 
  143300   0.66185417    299.30127    83200 
  143400   0.66211359    298.35532    83300 
  143500   0.66307428    301.95457    83400 
  143600    0.6642413    301.23771    83500 
  143700   0.66333196    299.77418    83600 
  143800   0.66112252    295.10032    83700 
  143900    0.6587182    297.44912    83800 
  144000   0.65724583    296.99556    83900 
  144100   0.65625143    298.61077    84000 
  144200   0.65580278    296.87604    84100 
  144300   0.65603591    296.09635    84200 
  144400   0.65597806    302.73548    84300 
  144500   0.65700368    298.61654    84400 
  144600   0.65893104    300.93065    84500 
  144700   0.66103052    300.29846    84600 
  144800   0.66329645    296.90824    84700 
  144900   0.66284206    299.89336    84800 
  145000   0.66197596    296.80234    84900 
  145100   0.66095644    293.09834    85000 
  145200   0.66003094    295.25141    85100 
  145300   0.65913621    300.17238    85200 
  145400   0.65808651    301.33356    85300 
  145500   0.65818753    298.39182    85400 
  145600   0.65879573    297.42287    85500 
  145700   0.65940071     296.5583    85600 
  145800   0.66024135    296.90669    85700 
  145900     0.661525    299.98299    85800 
  146000   0.66271871    299.36728    85900 
  146100   0.66259393    301.25866    86000 
  146200   0.66226719    294.33681    86100 
  146300   0.66148272    297.03794    86200 
  146400   0.66090642    295.21973    86300 
  146500   0.66079035    299.09691    86400 
  146600   0.66177317    299.18845    86500 
  146700   0.66431138     295.7557    86600 
  146800   0.66721429    293.56055    86700 
  146900   0.66900776    298.41084    86800 
  147000   0.66895528     300.7983    86900 
  147100   0.66808011    300.45305    87000 
  147200   0.66599718    292.15795    87100 
  147300   0.66285099    297.04269    87200 
  147400   0.66120793    298.35839    87300 
  147500   0.66107569    297.25413    87400 
  147600   0.66209428    298.33055    87500 
  147700   0.66267183    301.12958    87600 
  147800   0.66266165    295.73743    87700 
  147900   0.66212278    294.09014    87800 
  148000   0.66088516     296.1011    87900 
  148100   0.65941829    300.88753    88000 
  148200   0.65839922    300.45592    88100 
  148300   0.65820897    296.42499    88200 
  148400   0.65798307    299.84521    88300 
  148500   0.65719792    302.70809    88400 
  148600   0.65655806    300.44336    88500 
  148700   0.65646933     293.9254    88600 
  148800   0.65697125     296.4871    88700 
  148900   0.65851597    298.37567    88800 
  149000   0.65970846    300.18715    88900 
  149100   0.66063883    299.97648    89000 
  149200   0.66135112    297.35666    89100 
  149300   0.66188365    297.92371    89200 
  149400   0.66151703    298.36812    89300 
  149500   0.66102512    301.50398    89400 
  149600   0.66051429    296.88878    89500 
  149700   0.65976483    293.54527    89600 
  149800   0.65859575    295.88753    89700 
  149900   0.65833479    295.57346    89800 
  150000    0.6577725     297.3326    89900 
  150100   0.65709818    298.56486    90000 
  150200   0.65628809    297.50099    90100 
  150300   0.65655431    295.79239    90200 
  150400   0.65777492    294.76063    90300 
  150500   0.65915469    298.64884    90400 
  150600   0.65976408    301.90357    90500 
  150700   0.65842915    299.37257    90600 
  150800   0.65708447    299.32999    90700 
  150900    0.6563119    297.06935    90800 
  151000   0.65651414    294.42538    90900 
  151100   0.65716961    298.79171    91000 
  151200   0.65796593    302.83163    91100 
  151300   0.65851606    302.57107    91200 
  151400   0.65817131    297.95765    91300 
  151500    0.6574193    299.88837    91400 
  151600   0.65642768    299.03315    91500 
  151700    0.6548865    299.14207    91600 
  151800   0.65331424     301.5147    91700 
  151900   0.65301333    299.10399    91800 
  152000   0.65396172    295.68665    91900 
  152100   0.65621377     296.6519    92000 
  152200   0.65841348     299.3527    92100 
  152300   0.66108372    297.30074    92200 
  152400    0.6627268    297.08234    92300 
  152500   0.66326003    294.46297    92400 
  152600    0.6632841    296.59431    92500 
  152700   0.66259609    297.99447    92600 
  152800   0.66172149    295.94227    92700 
  152900   0.65960196    304.38612    92800 
  153000    0.6578538    303.96898    92900 
  153100   0.65691543    296.72095    93000 
  153200   0.65702688    296.14343    93100 
  153300   0.65724999     299.9904    93200 
  153400   0.65812791    300.89819    93300 
  153500    0.6587233    302.95212    93400 
  153600   0.65873121    298.64372    93500 
  153700   0.65852528    295.32123    93600 
  153800    0.6576751    297.83967    93700 
  153900   0.65817361    297.91878    93800 
  154000   0.65948952    299.72083    93900 
  154100   0.66129899     297.5152    94000 
  154200   0.66248098    298.15461    94100 
  154300   0.66414958    297.83789    94200 
  154400   0.66546756    302.34598    94300 
  154500   0.66484581    299.70024    94400 
  154600   0.66254954    295.84067    94500 
  154700   0.65966991    294.43744    94600 
  154800   0.65773089    295.89922    94700 
  154900   0.65776093    294.80618    94800 
  155000   0.65841815    298.41459    94900 
  155100   0.65857725    299.94153    95000 
  155200   0.65852442    300.65875    95100 
  155300   0.65894545    295.43924    95200 
  155400   0.65975753      295.018    95300 
  155500   0.66084345    298.52082    95400 
  155600   0.66160643    299.22194    95500 
  155700   0.66111368    302.03763    95600 
  155800   0.65941189    303.82156    95700 
  155900   0.65709877    299.51848    95800 
  156000   0.65485626    295.56861    95900 
  156100   0.65428399    295.87613    96000 
  156200   0.65561076    298.55149    96100 
  156300   0.65806132    300.27238    96200 
  156400   0.66024135    296.90866    96300 
  156500   0.66138304    297.52023    96400 
  156600   0.66182589    297.93194    96500 
  156700   0.66223159    295.72232    96600 
  156800   0.66259861    302.77347    96700 
  156900   0.66239944    299.89048    96800 
  157000   0.66170259    296.71632    96900 
  157100   0.66109711    295.06232    97000 
  157200   0.66084177    297.25486    97100 
  157300    0.6602209    299.37791    97200 
  157400   0.65955055    298.80256    97300 
  157500    0.6588742    298.37735    97400 
  157600   0.65806283    294.49436    97500 
  157700   0.65740381    294.56684    97600 
  157800   0.65657718    297.93633    97700 
  157900   0.65609622    300.37592    97800 
  158000    0.6557304    297.70945    97900 
  158100   0.65658347    298.04219    98000 
  158200   0.65790214    296.74527    98100 
  158300   0.65945999    295.92491    98200 
  158400   0.66061028    301.42819    98300 
  158500   0.66132424    305.13749    98400 
  158600   0.66171647    302.23008    98500 
  158700   0.66164287    300.92357    98600 
  158800   0.66131786    296.69557    98700 
  158900   0.66144188     295.8638    98800 
  159000   0.66225497    296.52689    98900 
  159100   0.66423482    298.14433    99000 
  159200   0.66500713    301.11044    99100 
  159300   0.66379501    300.49137    99200 
  159400   0.66248383    295.80044    99300 
  159500   0.66191688     295.3904    99400 
  159600   0.66179894    294.50358    99500 
  159700   0.66159496    296.48907    99600 
  159800    0.6601378    297.40838    99700 
  159900   0.65810593    301.65574    99800 
  160000   0.65618532    299.03719    99900 
  160100   0.65484842    292.60794   100000 
Loop time of 1189.04 on 1 procs for 100000 steps with 8232 atoms

Performance: 7.266 ns/day, 3.303 hours/ns, 84.102 timesteps/s
92.1% CPU use with 1 MPI tasks x 1 OpenMP threads

MPI task timing breakdown:
Section |  min time  |  avg time  |  max time  |%varavg| %total
---------------------------------------------------------------
Pair    | 905.91     | 905.91     | 905.91     |   0.0 | 76.19
Bond    | 169.81     | 169.81     | 169.81     |   0.0 | 14.28
Neigh   | 49.432     | 49.432     | 49.432     |   0.0 |  4.16
Comm    | 11.231     | 11.231     | 11.231     |   0.0 |  0.94
Output  | 9.8494     | 9.8494     | 9.8494     |   0.0 |  0.83
Modify  | 37.144     | 37.144     | 37.144     |   0.0 |  3.12
Other   |            | 5.662      |            |       |  0.48

Nlocal:    8232 ave 8232 max 8232 min
Histogram: 1 0 0 0 0 0 0 0 0 0
Nghost:    11631 ave 11631 max 11631 min
Histogram: 1 0 0 0 0 0 0 0 0 0
Neighs:    683693 ave 683693 max 683693 min
Histogram: 1 0 0 0 0 0 0 0 0 0

Total # of neighbors = 683693
Ave neighs/atom = 83.0531
Ave special neighs/atom = 4
Neighbor list builds = 1655
Dangerous builds = 0

unfix NPT2

undump 1





# bond_style none # kept ridgid in TraPPE-UA FF

# angle_style harmonic # theta_0 = 114 k_theta/kB = 62500

# dihedral_style fourier

# dihedral_coeff  #Work out how to specify up to cos 3 phi term !

# fix shake/ridgid/rattle


Total wall time: 0:30:31
