LAMMPS (3 Mar 2020)
OMP_NUM_THREADS environment is not set. Defaulting to 1 thread. (src/comm.cpp:94)
  using 1 OpenMP thread(s) per MPI task
clear
OMP_NUM_THREADS environment is not set. Defaulting to 1 thread. (src/comm.cpp:94)
  using 1 OpenMP thread(s) per MPI task
dimension 3
units metal
atom_style molecular
boundary p p p

pair_style lj/cut 9.4 #approx 2.5 sigma
pair_modify tail yes #Add tail contributions for density
bond_style harmonic
angle_style harmonic
dihedral_style opls


# Box Configuration Variables

variable lbox equal 7.0 #Unit Cells
variable Temp equal 298.0 #K
variable Press equal 1.0 # Bars
variable kb_eV equal 8.61733e-5
variable kJ_mol_to_eV equal 1.0364e-2

lattice fcc 12.00
Lattice spacing in x,y,z = 12 12 12

region box block 0 ${lbox} 0 ${lbox} 0 ${lbox}
region box block 0 7 0 ${lbox} 0 ${lbox}
region box block 0 7 0 7 0 ${lbox}
region box block 0 7 0 7 0 7

create_box  2 box             bond/types 1             angle/types 1             dihedral/types 1             extra/bond/per/atom 2             extra/angle/per/atom 3             extra/dihedral/per/atom 2             extra/special/per/atom 4
Created orthogonal box = (0 0 0) to (84 84 84)
  1 by 2 by 2 MPI processor grid
molecule hexane hexane_trappe.template
Read molecule hexane:
  6 atoms with max type 2
  5 bonds with max type 1
  4 angles with max type 1
  3 dihedrals with max type 1
  0 impropers with max type 0
# Imports hexane atom type 1 and 2 are ch3 and ch2 respectively

create_atoms 0 box mol hexane 435231231
Created 8232 atoms
  create_atoms CPU = 0.00577139 secs

# TraPPE Model

pair_coeff 1 1 $(98*v_kb_eV) 3.75
pair_coeff 1 1 0.008444983399999999793 3.75
pair_coeff 1 2 $(67.14*v_kb_eV) 3.85
pair_coeff 1 2 0.0057856753619999999605 3.85
pair_coeff 2 2 $(46*v_kb_eV) 3.95
pair_coeff 2 2 0.0039639717999999995665 3.95
bond_coeff 1 $(265265.6*v_kJ_mol_to_eV/100) 1.54      #or 1.5220#K  #includes 1/2 factor. Division by 100 converts from nm^-2 to \AA^-2 Coefficent from GROMACS implementation of the OPLS-AA FF.
bond_coeff 1 27.49212678399999632 1.54      
angle_coeff 1 $(62500*v_kb_eV/2) 114 #K divided by 2 to be correct
angle_coeff 1 2.692915624999999924 114 
dihedral_coeff 1 0.00 $(2*v_kb_eV*355.03) $(2*v_kb_eV*-68.19) $(2*v_kb_eV*791.32)
dihedral_coeff 1 0.00 0.061188213397999992316 $(2*v_kb_eV*-68.19) $(2*v_kb_eV*791.32)
dihedral_coeff 1 0.00 0.061188213397999992316 -0.011752314653999999805 $(2*v_kb_eV*791.32)
dihedral_coeff 1 0.00 0.061188213397999992316 -0.011752314653999999805 0.13638131151200000302




# Masses
mass 1 15.035
mass 2 14.026


velocity all create ${Temp} 1234569
velocity all create 298 1234569
timestep        0.001


fix NVE all nve


run 1000
Neighbor list info ...
  update every 1 steps, delay 10 steps, check yes
  max neighbors/atom: 2000, page size: 100000
  master list distance cutoff = 11.4
  ghost atom cutoff = 11.4
  binsize = 5.7, bins = 15 15 15
  1 neighbor lists, perpetual/occasional/extra = 1 0 0
  (1) pair lj/cut, perpetual
      attributes: half, newton on
      pair build: half/bin/newton
      stencil: half/bin/3d/newton
      bin: standard
Per MPI rank memory allocation (min/avg/max) = 8.091 | 8.093 | 8.095 Mbytes
Step Temp E_pair E_mol TotEng Press 
       0          298    98.189791    58.491927    473.73591     7835.663 
    1000     405.4543   -171.48535    213.34205    473.23586     1351.238 
Loop time of 2.4947 on 4 procs for 1000 steps with 8232 atoms

Performance: 34.633 ns/day, 0.693 hours/ns, 400.850 timesteps/s
94.2% CPU use with 4 MPI tasks x 1 OpenMP threads

MPI task timing breakdown:
Section |  min time  |  avg time  |  max time  |%varavg| %total
---------------------------------------------------------------
Pair    | 1.3732     | 1.4165     | 1.4418     |   2.2 | 56.78
Bond    | 0.47091    | 0.48614    | 0.49741    |   1.4 | 19.49
Neigh   | 0.24961    | 0.25364    | 0.25945    |   0.7 | 10.17
Comm    | 0.23444    | 0.27068    | 0.33138    |   7.0 | 10.85
Output  | 5.9484e-05 | 6.8035e-05 | 8.8105e-05 |   0.0 |  0.00
Modify  | 0.04005    | 0.040678   | 0.041144   |   0.2 |  1.63
Other   |            | 0.02697    |            |       |  1.08

Nlocal:    2058 ave 2086 max 1997 min
Histogram: 1 0 0 0 0 0 0 1 0 2
Nghost:    4147 ave 4238 max 4096 min
Histogram: 1 1 0 1 0 0 0 0 0 1
Neighs:    84409.5 ave 86125 max 81900 min
Histogram: 1 0 0 0 0 0 1 1 0 1

Total # of neighbors = 337638
Ave neighs/atom = 41.0153
Ave special neighs/atom = 4
Neighbor list builds = 43
Dangerous builds = 0


unfix NVE





fix NVT all nvt temp ${Temp} ${Temp} $(100*dt)
fix NVT all nvt temp 298 ${Temp} $(100*dt)
fix NVT all nvt temp 298 298 $(100*dt)
fix NVT all nvt temp 298 298 0.10000000000000000555

thermo 100

thermo_style custom step density temp press

run 5000
Per MPI rank memory allocation (min/avg/max) = 8.097 | 8.099 | 8.102 Mbytes
Step Density Temp Press 
    1000   0.33123908     405.4543     1351.238 
    1100   0.33123908    366.35442    1330.9537 
    1200   0.33123908    351.39983    870.57975 
    1300   0.33123908    322.59355   -56.438871 
    1400   0.33123908    302.90653   -301.00177 
    1500   0.33123908    291.33876    -327.2263 
    1600   0.33123908    293.50593   -279.60875 
    1700   0.33123908    291.53359    1.6474271 
    1800   0.33123908     298.1515   -66.986979 
    1900   0.33123908    304.54228   -187.26437 
    2000   0.33123908    302.30242   -259.11638 
    2100   0.33123908    289.75677   -674.04797 
    2200   0.33123908    291.43012   -894.23462 
    2300   0.33123908    296.90592     -597.619 
    2400   0.33123908    306.29866   -371.19255 
    2500   0.33123908    303.59452    119.28369 
    2600   0.33123908     295.9148    632.44855 
    2700   0.33123908    291.99605     790.2935 
    2800   0.33123908    296.36249    597.22268 
    2900   0.33123908    303.57947    418.68544 
    3000   0.33123908     303.5459   -170.67691 
    3100   0.33123908    295.60113   -656.58606 
    3200   0.33123908    291.00568   -865.57439 
    3300   0.33123908    297.14144   -931.02022 
    3400   0.33123908    305.92177   -643.06365 
    3500   0.33123908    296.98349   -285.56414 
    3600   0.33123908    295.47752    42.339707 
    3700   0.33123908     293.0491    356.93305 
    3800   0.33123908    299.73368    528.83616 
    3900   0.33123908    306.21814    453.65959 
    4000   0.33123908    302.20074    159.12036 
    4100   0.33123908    293.99494   -32.749091 
    4200   0.33123908    287.93746   -375.33244 
    4300   0.33123908    297.96677   -503.74733 
    4400   0.33123908    309.34152   -635.56836 
    4500   0.33123908    301.02809   -365.56634 
    4600   0.33123908    296.61661   -239.28806 
    4700   0.33123908    293.15224   -263.77744 
    4800   0.33123908    292.29426   -23.110725 
    4900   0.33123908    300.09079    66.796809 
    5000   0.33123908    303.71174    154.89744 
    5100   0.33123908    297.71579    242.10439 
    5200   0.33123908    296.10532    44.885868 
    5300   0.33123908    294.09878    -77.07593 
    5400   0.33123908    291.63768   -35.400968 
    5500   0.33123908     297.8148   -181.88517 
    5600   0.33123908     295.9903    -310.3719 
    5700   0.33123908    296.34598   -268.32642 
    5800   0.33123908    301.43796   -411.75843 
    5900   0.33123908    296.15333   -321.74496 
    6000   0.33123908    293.72212   -265.19374 
Loop time of 14.8349 on 4 procs for 5000 steps with 8232 atoms

Performance: 29.120 ns/day, 0.824 hours/ns, 337.042 timesteps/s
82.5% CPU use with 4 MPI tasks x 1 OpenMP threads

MPI task timing breakdown:
Section |  min time  |  avg time  |  max time  |%varavg| %total
---------------------------------------------------------------
Pair    | 6.7544     | 7.1295     | 7.6141     |  11.9 | 48.06
Bond    | 2.3809     | 2.4381     | 2.5186     |   3.6 | 16.43
Neigh   | 0.80909    | 0.87837    | 0.94718    |   5.3 |  5.92
Comm    | 3.1749     | 3.6359     | 4.037      |  17.7 | 24.51
Output  | 0.0048717  | 0.0055481  | 0.0065043  |   0.8 |  0.04
Modify  | 0.47186    | 0.51754    | 0.57595    |   5.4 |  3.49
Other   |            | 0.23       |            |       |  1.55

Nlocal:    2058 ave 2142 max 1976 min
Histogram: 1 0 1 0 0 0 1 0 0 1
Nghost:    4286 ave 4453 max 4218 min
Histogram: 2 1 0 0 0 0 0 0 0 1
Neighs:    91576 ave 97662 max 84468 min
Histogram: 1 0 0 0 0 1 1 0 0 1

Total # of neighbors = 366304
Ave neighs/atom = 44.4976
Ave special neighs/atom = 4
Neighbor list builds = 132
Dangerous builds = 0


fix DEFORM all deform 10 x scale 0.8                         y scale 0.8                         z scale 0.8

run 10000
Per MPI rank memory allocation (min/avg/max) = 8.098 | 8.1 | 8.104 Mbytes
Step Density Temp Press 
    6000   0.33123908    293.72212   -265.19374 
    6100   0.33323449    295.06781   -159.17067 
    6200   0.33524596    298.25953   -45.011556 
    6300   0.33727365    304.90747    7.8547969 
    6400   0.33931773    305.71762   -4.6006366 
    6500   0.34137835    296.65941    49.117464 
    6600    0.3434557    293.63631   -37.638809 
    6700   0.34554994    295.47713   -24.673688 
    6800   0.34766124    304.07333   -97.167816 
    6900   0.34978977    302.77635   -387.44905 
    7000   0.35193571    297.29143   -316.44006 
    7100   0.35409924    291.31747   -529.61583 
    7200   0.35628055    295.20286   -387.33964 
    7300    0.3584798    297.66399   -310.60752 
    7400    0.3606972    297.62088   -178.79251 
    7500   0.36293292    301.51131    33.939641 
    7600   0.36518715    296.05118    114.86545 
    7700    0.3674601    291.66528    107.43184 
    7800   0.36975194     296.9679    69.248292 
    7900   0.37206288    303.83151   -83.287171 
    8000   0.37439313    298.63119    -199.8492 
    8100   0.37674287    292.44796   -361.59993 
    8200   0.37911231    294.67528   -317.60768 
    8300   0.38150167    298.65611   -524.42794 
    8400   0.38391114    300.14644   -353.19434 
    8500   0.38634096    301.85965   -298.04515 
    8600   0.38879131    298.01386   -354.31536 
    8700   0.39126244    295.26957   -100.74716 
    8800   0.39375455    293.80939    113.31079 
    8900   0.39626787    299.56969    108.50217 
    9000   0.39880262    299.49125     168.2717 
    9100   0.40135904    299.45637   -32.007795 
    9200   0.40393736    298.93912   -137.67173 
    9300    0.4065378    293.13361   -207.41409 
    9400   0.40916062    297.37485   -250.89883 
    9500   0.41180605    298.90033   -420.96334 
    9600   0.41447433    300.02886   -630.57296 
    9700   0.41716571    295.91323   -515.36728 
    9800   0.41988045    299.30159   -313.99426 
    9900   0.42261879    294.42038   -224.48611 
   10000     0.425381    301.05225   -187.37448 
   10100   0.42816732    302.12395    158.04766 
   10200   0.43097804    301.91682    176.89253 
   10300   0.43381341    296.39939    103.06931 
   10400   0.43667371    301.50812    28.382433 
   10500   0.43955921    296.24956    -215.6979 
   10600   0.44247019    298.87484   -406.33879 
   10700   0.44540693    303.24863   -217.57145 
   10800   0.44836972     303.5636   -393.02475 
   10900   0.45135884    297.63735   -608.19388 
   11000   0.45437459    295.45338   -312.34817 
   11100   0.45741727    300.82762   -172.47508 
   11200   0.46048717    300.53203   -260.29742 
   11300   0.46358461    296.29266    -122.7476 
   11400   0.46670989    298.61641   -82.476822 
   11500   0.46986332    296.43312   -317.11479 
   11600   0.47304523    303.14183   -110.46787 
   11700   0.47625593    306.00423   -65.895578 
   11800   0.47949576    300.71826    107.41388 
   11900   0.48276504    299.43731   -13.278795 
   12000    0.4860641    300.76067   -152.85889 
   12100    0.4893933    296.02534   -311.28151 
   12200   0.49275297    300.02725   -284.64315 
   12300   0.49614346    302.23625    -388.9478 
   12400   0.49956512    305.53263   -235.98038 
   12500   0.50301833    296.72167   -219.16273 
   12600   0.50650343    297.42181   -224.87297 
   12700    0.5100208    297.14759   -54.739711 
   12800   0.51357082    299.91514    136.90301 
   12900   0.51715386    300.90765     100.2811 
   13000    0.5207703    300.53597    129.83536 
   13100   0.52442055    296.30281     30.01594 
   13200   0.52810499    295.77808   -41.176848 
   13300   0.53182403    297.22683   -206.80324 
   13400   0.53557806    300.41604   -447.16553 
   13500   0.53936752    301.59673   -165.23329 
   13600    0.5431928    299.80877   -425.96216 
   13700   0.54705435    295.34229   -569.34178 
   13800   0.55095259    295.77825   -327.53049 
   13900   0.55488795    302.00793   -130.54729 
   14000   0.55886088    302.38606    117.22395 
   14100   0.56287182    298.29146    119.52944 
   14200   0.56692125    298.26299    86.787398 
   14300    0.5710096    296.27126    283.89671 
   14400   0.57513737    294.99616    238.83243 
   14500   0.57930501    300.94654    -99.28994 
   14600   0.58351302    303.87159   -137.52669 
   14700   0.58776189     297.4627    40.207401 
   14800   0.59205211    299.05435   -224.17708 
   14900   0.59638418    296.99855   -145.54739 
   15000   0.60075862    301.08301    -27.28699 
   15100   0.60517594    296.37019     76.77376 
   15200   0.60963668    300.98462    360.80081 
   15300   0.61414137    303.57837    237.77293 
   15400   0.61869054    298.89936     56.89334 
   15500   0.62328476     296.6741    416.87167 
   15600   0.62792458    296.74032      275.172 
   15700   0.63261056    296.84618    261.11866 
   15800   0.63734329    296.69098    480.25495 
   15900   0.64212335    294.62268    638.64565 
   16000   0.64695132    294.88098    571.21747 
Loop time of 32.3729 on 4 procs for 10000 steps with 8232 atoms

Performance: 26.689 ns/day, 0.899 hours/ns, 308.901 timesteps/s
92.1% CPU use with 4 MPI tasks x 1 OpenMP threads

MPI task timing breakdown:
Section |  min time  |  avg time  |  max time  |%varavg| %total
---------------------------------------------------------------
Pair    | 17.569     | 19.767     | 21.358     |  30.9 | 61.06
Bond    | 4.4635     | 4.8551     | 5.144      |  11.3 | 15.00
Neigh   | 1.6464     | 1.6621     | 1.6893     |   1.3 |  5.13
Comm    | 2.9907     | 4.8082     | 7.3802     |  72.9 | 14.85
Output  | 0.0063651  | 0.0073977  | 0.0097621  |   1.6 |  0.02
Modify  | 0.88141    | 0.9214     | 0.98575    |   4.1 |  2.85
Other   |            | 0.352      |            |       |  1.09

Nlocal:    2058 ave 2102 max 2012 min
Histogram: 1 1 0 0 0 0 0 0 1 1
Nghost:    5670 ave 5709 max 5650 min
Histogram: 1 1 1 0 0 0 0 0 0 1
Neighs:    168800 ave 171840 max 163722 min
Histogram: 1 0 0 0 0 1 0 0 0 2

Total # of neighbors = 675200
Ave neighs/atom = 82.0214
Ave special neighs/atom = 4
Neighbor list builds = 223
Dangerous builds = 0

unfix DEFORM

run 10000
Per MPI rank memory allocation (min/avg/max) = 8.576 | 8.58 | 8.585 Mbytes
Step Density Temp Press 
   16000   0.64695132    294.88098    974.03021 
   16100   0.64695132    301.39423    587.49177 
   16200   0.64695132    299.36075    483.70905 
   16300   0.64695132    298.92745    440.87331 
   16400   0.64695132    295.53529    360.57874 
   16500   0.64695132    298.89929    359.86128 
   16600   0.64695132    298.03131    481.84228 
   16700   0.64695132    294.59455     455.8705 
   16800   0.64695132    297.28763    303.24315 
   16900   0.64695132    298.06784     446.6824 
   17000   0.64695132    298.79526    488.36843 
   17100   0.64695132    300.89471    426.96654 
   17200   0.64695132    295.64149    771.29073 
   17300   0.64695132    291.42826    645.54495 
   17400   0.64695132    296.97824    365.41412 
   17500   0.64695132    302.60406    433.21304 
   17600   0.64695132    300.09551    625.37471 
   17700   0.64695132    297.14328    343.57024 
   17800   0.64695132    297.74183    50.669198 
   17900   0.64695132    299.04375   -2.5033771 
   18000   0.64695132    300.05276    215.42827 
   18100   0.64695132    298.46065    411.87039 
   18200   0.64695132    299.58126     337.5148 
   18300   0.64695132    297.85857    234.55044 
   18400   0.64695132    294.04186      284.863 
   18500   0.64695132    300.02268    536.93732 
   18600   0.64695132    298.19974    392.15018 
   18700   0.64695132    299.26471    228.98916 
   18800   0.64695132     298.2419    598.65656 
   18900   0.64695132    299.67525     506.9341 
   19000   0.64695132    298.06367    42.885165 
   19100   0.64695132    295.05317    393.96752 
   19200   0.64695132    297.77644    565.37172 
   19300   0.64695132    302.80388    317.27646 
   19400   0.64695132    299.50582    206.03345 
   19500   0.64695132    297.76776    449.22426 
   19600   0.64695132    295.87099    274.06917 
   19700   0.64695132    296.01902    235.02762 
   19800   0.64695132    302.90933    675.54223 
   19900   0.64695132    304.24069    539.10206 
   20000   0.64695132    301.60934    427.66959 
   20100   0.64695132    297.59082    632.63297 
   20200   0.64695132    295.15618    409.25692 
   20300   0.64695132    300.76006    84.800505 
   20400   0.64695132    300.05396    226.05855 
   20500   0.64695132    299.11809      248.534 
   20600   0.64695132    298.00756    181.18499 
   20700   0.64695132    298.38151    278.88172 
   20800   0.64695132    300.11807    113.73088 
   20900   0.64695132    301.99937    375.54233 
   21000   0.64695132    300.43654    735.36935 
   21100   0.64695132    300.73382    394.45318 
   21200   0.64695132      298.387    232.04653 
   21300   0.64695132    296.18968    132.14833 
   21400   0.64695132    299.04323   -310.59343 
   21500   0.64695132     299.9474    171.99509 
   21600   0.64695132    303.20315    160.06413 
   21700   0.64695132    300.00421    -10.21887 
   21800   0.64695132    299.57229    352.24363 
   21900   0.64695132    301.68362    371.36515 
   22000   0.64695132    298.12041    101.06984 
   22100   0.64695132    295.50924     440.5924 
   22200   0.64695132    296.78689    467.11492 
   22300   0.64695132    303.28628    475.86734 
   22400   0.64695132    299.79784    486.65155 
   22500   0.64695132    298.49583    212.87956 
   22600   0.64695132    300.78729    2.3714563 
   22700   0.64695132    296.56984    23.140834 
   22800   0.64695132    297.72149    317.11366 
   22900   0.64695132    298.52866    449.54638 
   23000   0.64695132    295.88929    174.68256 
   23100   0.64695132    301.22947    278.90147 
   23200   0.64695132    295.61633    636.94317 
   23300   0.64695132    298.08488    263.39224 
   23400   0.64695132     302.4495    123.83083 
   23500   0.64695132    300.60735    267.44585 
   23600   0.64695132    295.83835   -394.83004 
   23700   0.64695132    295.04209   -92.305509 
   23800   0.64695132    300.24655    482.28343 
   23900   0.64695132    304.04887     453.4095 
   24000   0.64695132    298.44793    192.38814 
   24100   0.64695132     292.5512     548.8843 
   24200   0.64695132    296.95692    791.88918 
   24300   0.64695132    299.64045    425.19084 
   24400   0.64695132    298.26442    75.974269 
   24500   0.64695132    297.84725    369.71246 
   24600   0.64695132    291.82961   -56.868109 
   24700   0.64695132    297.28917   -177.96198 
   24800   0.64695132    300.82635    178.72206 
   24900   0.64695132     301.2049    300.64584 
   25000   0.64695132    296.48606    269.01268 
   25100   0.64695132    295.18323    137.96778 
   25200   0.64695132    300.35983    165.53692 
   25300   0.64695132    300.54163    422.36237 
   25400   0.64695132    296.80727    327.21332 
   25500   0.64695132    298.80066    272.97437 
   25600   0.64695132    295.29613    188.00268 
   25700   0.64695132    298.36011   -98.832298 
   25800   0.64695132    302.39544    161.34636 
   25900   0.64695132    297.31979    387.84413 
   26000   0.64695132    298.41507    297.21131 
Loop time of 38.2853 on 4 procs for 10000 steps with 8232 atoms

Performance: 22.567 ns/day, 1.063 hours/ns, 261.197 timesteps/s
94.6% CPU use with 4 MPI tasks x 1 OpenMP threads

MPI task timing breakdown:
Section |  min time  |  avg time  |  max time  |%varavg| %total
---------------------------------------------------------------
Pair    | 26.225     | 26.501     | 27.118     |   7.0 | 69.22
Bond    | 4.8036     | 4.8598     | 4.9452     |   2.4 | 12.69
Neigh   | 1.5781     | 1.5931     | 1.6041     |   0.8 |  4.16
Comm    | 3.4942     | 4.0915     | 4.403      |  17.4 | 10.69
Output  | 0.0057527  | 0.0065894  | 0.0086324  |   1.5 |  0.02
Modify  | 0.8513     | 0.87314    | 0.9014     |   2.0 |  2.28
Other   |            | 0.3603     |            |       |  0.94

Nlocal:    2058 ave 2088 max 2030 min
Histogram: 2 0 0 0 0 0 0 0 1 1
Nghost:    5675.25 ave 5692 max 5655 min
Histogram: 1 0 1 0 0 0 0 0 0 2
Neighs:    168639 ave 171346 max 165462 min
Histogram: 1 0 0 0 0 1 1 0 0 1

Total # of neighbors = 674555
Ave neighs/atom = 81.943
Ave special neighs/atom = 4
Neighbor list builds = 174
Dangerous builds = 0

unfix NVT



fix NPT all npt temp ${Temp} ${Temp} $(100*dt) iso 1.0 1.0 $(1000*dt)
fix NPT all npt temp 298 ${Temp} $(100*dt) iso 1.0 1.0 $(1000*dt)
fix NPT all npt temp 298 298 $(100*dt) iso 1.0 1.0 $(1000*dt)
fix NPT all npt temp 298 298 0.10000000000000000555 iso 1.0 1.0 $(1000*dt)
fix NPT all npt temp 298 298 0.10000000000000000555 iso 1.0 1.0 1

run 150000
Per MPI rank memory allocation (min/avg/max) = 8.58 | 8.582 | 8.586 Mbytes
Step Density Temp Press 
   26000   0.64695132    298.41507    297.21131 
   26100   0.64484017    294.77745     129.0424 
   26200   0.63993745    301.77238   -17.966752 
   26300   0.63527542    301.07259   -75.840556 
   26400   0.63232356    299.95252   -83.932292 
   26500   0.63060471    298.65109   -100.97991 
   26600   0.62887483    300.32242   -94.310846 
   26700   0.62715876     297.7883     348.7298 
   26800   0.62491536    297.67634    239.13672 
   26900   0.62296262     297.5366   -30.387501 
   27000   0.62127931     298.5692     138.3445 
   27100     0.620144    303.09343   -2.6165716 
   27200   0.62041174    299.82812    -14.90464 
   27300   0.62071076    297.72838    234.56861 
   27400    0.6210198    296.32387    73.278865 
   27500   0.62217124    296.87833    60.813247 
   27600   0.62360258    297.03918   -48.769169 
   27700   0.62494003    299.37318   -71.354446 
   27800   0.62530735    297.48384   -484.00503 
   27900   0.62430447    299.76266    -138.6177 
   28000   0.62283533    296.35603    354.56763 
   28100   0.62189636    295.96705   -211.21325 
   28200    0.6223279    300.12496   -281.43155 
   28300   0.62351763    303.46437    279.47217 
   28400   0.62376817    303.04659     437.2535 
   28500   0.62291888    295.80532    167.07978 
   28600   0.62138098    301.80175    24.664856 
   28700   0.61987112    295.97966    5.4237796 
   28800   0.61865192    297.68834   -69.047033 
   28900   0.61770744    301.31274    258.31832 
   29000   0.61768967    300.59277    152.50239 
   29100   0.61744605    295.79448   -449.59673 
   29200   0.61788826    295.06243   -378.26207 
   29300   0.61785885    298.88735   -270.78579 
   29400   0.61795011    302.54414    56.709347 
   29500   0.61736244    305.47942   -116.48418 
   29600   0.61694952    300.79028    313.13446 
   29700   0.61568572    301.21646   -54.327406 
   29800   0.61464384    296.11641   -218.02809 
   29900   0.61414637    297.51004    117.65183 
   30000   0.61446653    300.36934    108.96255 
   30100   0.61578725    299.48018    71.810093 
   30200   0.61646248    298.32255     170.9047 
   30300   0.61564193    294.78262    219.90101 
   30400   0.61420054    300.24328    106.28053 
   30500   0.61312514     297.0568    159.01119 
   30600   0.61342632    298.19567    78.924348 
   30700   0.61407572    302.47463    89.195139 
   30800   0.61415518    300.76307   -232.30782 
   30900   0.61434594    300.74762   -329.67198 
   31000   0.61517204    295.73582    85.662343 
   31100   0.61583896    296.38168    207.62842 
   31200   0.61604722     300.0942    130.78433 
   31300   0.61597134    300.57169    26.957568 
   31400   0.61584808    292.49451   -33.792367 
   31500    0.6147177    296.13984      -182.84 
   31600   0.61416616    299.10228    38.634469 
   31700   0.61438796    297.43374    75.050953 
   31800   0.61505638    299.79115    244.51078 
   31900   0.61599873    301.19697    169.92325 
   32000   0.61694918    299.09752    223.66979 
   32100   0.61784985     300.4044    261.28907 
   32200    0.6194034    298.81027    231.58197 
   32300   0.62108962    295.40454    121.88833 
   32400   0.62275457    295.62669    330.65945 
   32500   0.62375942    300.92992    89.939197 
   32600   0.62354268    298.50056   -62.142082 
   32700   0.62243846    293.86323    474.89478 
   32800    0.6196257     294.1858    145.26392 
   32900   0.61699721     295.9132   -284.83274 
   33000   0.61555722    301.00345   -142.64676 
   33100   0.61462737     297.2749   -341.52611 
   33200    0.6142321    294.27113   -175.84618 
   33300    0.6140837    294.61344   -147.96427 
   33400   0.61435926    295.22268    -499.5566 
   33500   0.61562349    295.43003   -5.7215898 
   33600   0.61698587    293.66896    275.05306 
   33700   0.61784125    299.20003    252.26404 
   33800   0.61760632    296.71131    438.51441 
   33900   0.61594165    300.06752    123.41796 
   34000   0.61400558    296.89002   -205.90873 
   34100    0.6123857    293.52558   -49.891979 
   34200    0.6111969    293.92925   -297.25575 
   34300   0.61085281    296.59749   -321.27887 
   34400   0.61139433    299.45331   -29.689541 
   34500   0.61213376    297.99567   -183.81861 
   34600   0.61367867    293.78214   -22.096355 
   34700   0.61443983    296.98037   -116.27287 
   34800   0.61528012    295.14682   -44.022637 
   34900   0.61624518    299.30799   -13.788613 
   35000   0.61739002    299.58891   -124.37263 
   35100   0.61923199    292.97952    56.790479 
   35200   0.61972339     298.3782    108.98377 
   35300   0.61887813    297.37547    32.711145 
   35400   0.61725863    292.78851   -130.86241 
   35500   0.61534367    294.77699   -64.103162 
   35600   0.61449508    294.87736   -115.91266 
   35700   0.61363536    295.80005   -298.64494 
   35800   0.61320502    300.35876    268.43677 
   35900   0.61290316    299.66352    139.70937 
   36000   0.61273209    297.98685   -131.90725 
   36100   0.61362963    296.56458    -99.37877 
   36200   0.61549009    295.63734    5.0501128 
   36300   0.61741672    298.31153   -109.22515 
   36400   0.61829577    300.20277   -42.600822 
   36500    0.6184258    297.27059    40.872224 
   36600   0.61828421    293.49148    284.73364 
   36700   0.61814276    297.76361     425.4028 
   36800   0.61796973    299.81065    39.159945 
   36900   0.61710773    299.46905    112.31369 
   37000   0.61495106    297.99154    569.52992 
   37100   0.61174561     295.9371    328.42282 
   37200    0.6094954    294.02647    171.59966 
   37300   0.60775569    293.85842   -248.44873 
   37400   0.60772359    295.15983   -5.4279364 
   37500   0.60810333    300.29613    -59.58088 
   37600    0.6095325    300.51349   -26.728622 
   37700   0.61064533     301.7508   -163.83629 
   37800   0.61205697    290.99724   -213.47894 
   37900   0.61427602    294.25595   -3.6846312 
   38000   0.61580415    296.19861    348.53338 
   38100   0.61598234    296.16278    130.56721 
   38200    0.6152205    298.06805   -268.11663 
   38300   0.61445785     293.2829    128.80667 
   38400    0.6138963     293.5469    377.02079 
   38500   0.61419011    297.29298    76.111808 
   38600    0.6145453     299.4706   -140.20797 
   38700   0.61524462    300.47112    29.505878 
   38800   0.61572103    295.50988    141.82931 
   38900   0.61591478    295.41019    292.27052 
   39000   0.61591522    295.64983    137.87231 
   39100   0.61638896     295.2964    20.292646 
   39200   0.61638577    297.52416   -18.322803 
   39300   0.61565021    300.55688    129.87404 
   39400   0.61555273    296.75366    221.21357 
   39500    0.6145519    302.16072   -217.71914 
   39600   0.61374686    300.01456   -102.72724 
   39700   0.61315762     297.7821   -103.11188 
   39800   0.61324584    293.86621   -97.875543 
   39900   0.61424389    298.50217   -283.27955 
   40000   0.61529928     301.4324   -34.117864 
   40100    0.6161715    298.09251    372.61057 
   40200    0.6166849    300.22565    9.9361753 
   40300   0.61715896    296.80114   -302.70763 
   40400   0.61851203    297.70505   -150.51685 
   40500   0.62112184    295.85311    76.217977 
   40600   0.62370985    294.25869    64.563598 
   40700   0.62573421    293.34611    43.653546 
   40800   0.62685505    300.38795     75.77018 
   40900   0.62839658    301.78489   -52.805073 
   41000   0.62866528    300.29484    118.31414 
   41100   0.62775562    296.25377   -20.627901 
   41200   0.62625177    296.55541   -63.641882 
   41300   0.62442715    298.30399    32.057962 
   41400   0.62272153    299.20827    546.15729 
   41500   0.62114107    296.89147    230.88476 
   41600   0.61936018    298.81832   -253.21359 
   41700   0.61721299    298.52582    29.861918 
   41800   0.61516809    301.61631   -3.5530459 
   41900   0.61441754    300.78156    128.86562 
   42000   0.61495706    298.05607    90.077483 
   42100   0.61584412    297.53616  -0.60370544 
   42200   0.61638767    295.65286    233.22477 
   42300   0.61679459    300.55747   -21.677977 
   42400   0.61761506    294.38727     16.93464 
   42500   0.61768957    292.95619    149.78399 
   42600   0.61800658    298.64253    150.03603 
   42700   0.61930082    301.17624    422.96605 
   42800   0.62086535    297.56339    109.86436 
   42900   0.62176965    297.45346   -263.25842 
   43000    0.6214579    296.42345   -134.47765 
   43100     0.621512    294.54173   -86.401661 
   43200   0.62155659     298.6025    -67.67489 
   43300   0.62169859     301.6646    284.13249 
   43400    0.6215881    297.26503    31.111513 
   43500    0.6210996    298.50985   -478.12757 
   43600   0.62078417    298.00348    8.3910055 
   43700   0.61988909    300.08909     53.96753 
   43800   0.61934049    301.24354   -205.92332 
   43900   0.61945759    298.94437   -74.204388 
   44000   0.61991881    294.12494    -25.08179 
   44100   0.62017605    296.92842    67.187597 
   44200   0.62048522    296.99495    109.63167 
   44300    0.6199409    299.63372    -148.1342 
   44400   0.61885076    298.94049    324.94875 
   44500   0.61755236    300.10478    421.60304 
   44600   0.61612185    297.59191   -65.824839 
   44700    0.6141593      298.446   -184.66896 
   44800   0.61237306    300.56288     16.63659 
   44900   0.61171698    299.94625    176.09631 
   45000   0.61258305    298.38155    204.40941 
   45100   0.61461924    295.92455    275.26606 
   45200   0.61662455    300.64783    184.94394 
   45300   0.61840358    301.19764    266.77583 
   45400   0.61935786       297.29   -41.811034 
   45500   0.61935775    294.16013   -212.43351 
   45600   0.61882249    298.21453    -169.1278 
   45700   0.61888741    297.23927    17.872223 
   45800   0.61897509    296.82081    125.20254 
   45900   0.61892067    292.77922   -12.630911 
   46000   0.61833331    294.19838   -104.73886 
   46100   0.61820026    297.76683    294.88095 
   46200   0.61814459     298.4509    437.17783 
   46300   0.61796001    300.32663    59.945559 
   46400   0.61789034    298.34599    137.35089 
   46500   0.61815765     293.1825    25.547661 
   46600   0.61869599    295.54023    136.36326 
   46700   0.61979956    300.76265    272.76045 
   46800   0.62113332    301.95298   -281.13547 
   46900    0.6224673    297.74908   -16.423292 
   47000   0.62314769    295.28476    220.54427 
   47100   0.62333622    295.70958   -127.14716 
   47200   0.62267008    300.51818   -113.95736 
   47300   0.62081904    296.53341    -114.5472 
   47400   0.61804728    297.20462    56.766531 
   47500   0.61700975    292.68908    627.72737 
   47600   0.61723794    294.82722    200.87604 
   47700   0.61886887    298.56709   -62.237717 
   47800   0.61991896    301.05599    321.82035 
   47900   0.61994674    301.46829    189.97531 
   48000   0.61963819    298.19905    74.646651 
   48100   0.61918132    296.77585    181.56685 
   48200   0.61934373    294.19719   -41.811302 
   48300   0.61906809    299.37877   -292.84799 
   48400   0.61816864    299.02885   -113.06122 
   48500   0.61725254    295.56122    115.20117 
   48600   0.61606474    299.39926   -101.47891 
   48700   0.61526421    298.99863   -50.131277 
   48800   0.61507352    294.30338   -247.78549 
   48900   0.61655186    293.71565   -210.09538 
   49000   0.61922243    297.39216    -53.11969 
   49100   0.62119041    301.26301    108.25917 
   49200   0.62240588    296.04608     317.5323 
   49300   0.62255296    294.32859    196.56722 
   49400   0.62148302    293.48392    522.35139 
   49500   0.61968227    299.18247    107.97091 
   49600   0.61839493    300.91833   -282.10278 
   49700   0.61865973    297.18698   -28.058952 
   49800   0.61983527    295.30197    57.083882 
   49900   0.62013378    299.93907    19.654805 
   50000   0.61985187    301.62577   -48.329486 
   50100   0.61788944    300.57058   -167.38019 
   50200   0.61539532    298.84971    2.2742111 
   50300   0.61386433    298.01062   -71.308169 
   50400   0.61375741    298.72231   -150.04044 
   50500   0.61453561    296.81855   -100.22149 
   50600   0.61561863     301.3979    190.24857 
   50700   0.61651784    301.07996   -117.43489 
   50800   0.61792181    301.73727   -211.73164 
   50900   0.62043417    299.26113    79.086987 
   51000   0.62279038    297.97236   -97.849846 
   51100   0.62477746    300.16199    11.312489 
   51200   0.62658218    298.42374    96.022324 
   51300   0.62714722     298.5021   -68.346971 
   51400   0.62692231    296.03976    248.48243 
   51500   0.62599646    297.76148    144.43685 
   51600   0.62662813    294.09004     23.56177 
   51700    0.6280629    301.10526    267.08455 
   51800   0.62927808    303.06235    187.97456 
   51900   0.62902883    299.03047    63.650024 
   52000   0.62759522    296.62048    290.12938 
   52100   0.62555293    296.22688     210.4201 
   52200   0.62308162    298.84133   -230.00567 
   52300   0.62074215    300.88791    124.20747 
   52400   0.61969448    299.53694    176.30922 
   52500   0.61977164     297.6837   -66.085593 
   52600   0.62058712    297.92613   -215.14035 
   52700   0.62169367    302.05775   -361.27683 
   52800   0.62265576    303.91614   -314.87331 
   52900   0.62312238     302.8527   -26.996152 
   53000   0.62293258    298.33331   -232.60192 
   53100   0.62318636      294.835   -178.35281 
   53200   0.62315644    296.91507     69.33921 
   53300   0.62186498    298.93487   -92.918821 
   53400   0.62056456    301.02463     5.543095 
   53500   0.61956325    298.06316   -226.55493 
   53600   0.61932393    296.41286   -159.83701 
   53700   0.61996814    297.35264    160.08258 
   53800   0.62157602    298.33472    144.50169 
   53900   0.62364159    296.56592   -387.43534 
   54000   0.62568716    294.58011     256.7663 
   54100   0.62631999     297.4735    354.54598 
   54200   0.62575843    298.19427    68.022611 
   54300   0.62370829    295.80847   -176.68635 
   54400   0.62096594    299.50655   -567.09147 
   54500   0.61949051    301.14927   -165.13476 
   54600   0.61941403    291.89821    198.00054 
   54700   0.62055793    292.47189   -3.8123082 
   54800   0.62186714    304.85124    38.684549 
   54900   0.62323173    302.00293   -33.932852 
   55000   0.62374138    296.65381    -212.1339 
   55100    0.6242359     293.3637    89.822632 
   55200   0.62390787    296.92458   -21.628936 
   55300   0.62306243    300.86241   -428.96476 
   55400   0.62269484    301.81867    98.255587 
   55500   0.62284703    299.09068    267.63813 
   55600   0.62338112    295.49918    28.666507 
   55700   0.62457822      297.193    44.052596 
   55800   0.62592668    299.74309   -246.10627 
   55900   0.62757665    303.61322    179.22797 
   56000   0.62819966    297.40352   -262.09268 
   56100   0.62856727     297.8937    49.564883 
   56200   0.62824266    302.23293    162.97489 
   56300   0.62779754    298.26249   -105.93959 
   56400   0.62706555    298.69149   -120.63969 
   56500   0.62568689     296.3525   -52.493494 
   56600   0.62408581    292.83535    180.79298 
   56700   0.62226362    294.35707    14.041592 
   56800   0.62143589    299.79952    35.252035 
   56900   0.62082263    300.42841    171.29769 
   57000   0.61974351    297.71709   -50.712891 
   57100   0.61958294    294.61743    -221.7792 
   57200   0.62022425    294.82151    15.397366 
   57300    0.6213279    296.54843    169.37814 
   57400   0.62231354    300.08835     79.21676 
   57500   0.62317744    296.99765   -147.16235 
   57600   0.62506491    297.54966    59.772514 
   57700   0.62680683     299.8446    294.94925 
   57800   0.62814562    296.55998    180.21735 
   57900   0.62844133    299.40932    225.18731 
   58000   0.62832033    297.58769   -4.8663746 
   58100   0.62903271    292.14473   -164.96747 
   58200   0.62881905    297.27188   -135.95051 
   58300   0.62809896    297.19932   -98.918058 
   58400   0.62772209    299.24731   -21.174551 
   58500   0.62633736    297.70797   -23.654193 
   58600   0.62522107    298.04991   -60.383232 
   58700   0.62483452    294.93122   -203.83398 
   58800   0.62566973    292.68296    -108.8841 
   58900   0.62704003    294.85196    373.33946 
   59000   0.62754622    298.82492    297.38065 
   59100   0.62725998    299.94975   -241.93406 
   59200   0.62708481    294.99186   -105.20422 
   59300   0.62669092    295.56822   -242.57302 
   59400   0.62750846    296.98762    116.30657 
   59500   0.62857969    298.41586    311.06912 
   59600   0.62741775    301.56058   -141.42592 
   59700   0.62463073    300.19598   -302.72078 
   59800   0.62215428    293.09498    458.10217 
   59900   0.62089567    293.79149    254.35849 
   60000    0.6213264    295.23569   -59.104434 
   60100   0.62175428    301.39801    101.61363 
   60200    0.6217834    301.06745    319.61243 
   60300   0.62098408    299.41528   -147.43619 
   60400   0.62066069    298.26127   -406.15763 
   60500   0.62132731    296.58571   -10.117159 
   60600   0.62238527    296.12286    234.97293 
   60700   0.62268137    298.75096   -265.40878 
   60800    0.6228197    305.53735   -489.00101 
   60900   0.62342244    310.22401   -279.15185 
   61000   0.62363117    300.56454    196.11545 
   61100   0.62244965    296.82297    104.40091 
   61200   0.62057602    297.19001    -120.4897 
   61300   0.61974851    296.94096   -481.79446 
   61400    0.6202583    294.70722   -334.89218 
   61500    0.6218154    298.86703    95.040536 
   61600   0.62395131    300.72338    182.37666 
   61700   0.62572306    295.54185   -120.44448 
   61800   0.62580124    292.41786   -240.54132 
   61900   0.62469205     297.0328   -85.353689 
   62000   0.62368135     297.2989    86.030826 
   62100     0.623239     299.2469    78.561979 
   62200   0.62369231    295.02105   -144.79254 
   62300   0.62340354    301.09877   -108.79638 
   62400   0.62231159    298.13093    124.71132 
   62500   0.62052098    301.91727    43.602188 
   62600   0.61867104     297.3957   -107.09144 
   62700    0.6181031    297.93404    247.07244 
   62800   0.61836456    296.38218    102.77667 
   62900   0.61884513    300.04317   -58.820603 
   63000   0.62031656    299.97726    89.456685 
   63100   0.62165797    297.09252    403.04772 
   63200   0.62270146    293.75439    256.34143 
   63300    0.6230136    301.15545     118.4457 
   63400    0.6236139    299.77375    258.26415 
   63500   0.62432639     296.5483     224.0132 
   63600   0.62489647    293.93518   -84.822308 
   63700    0.6254787     297.0133    -84.26993 
   63800    0.6254931    292.46649    207.12416 
   63900   0.62529992    300.02746     124.4734 
   64000   0.62541563    297.50208   -17.242644 
   64100   0.62602274    291.47964    95.489032 
   64200   0.62564935    297.53845    161.17765 
   64300    0.6240756    301.29783    140.77876 
   64400   0.62293817    297.90603   -4.3860815 
   64500   0.62243531     294.3884    -28.86107 
   64600   0.62291607    297.94049    189.82754 
   64700   0.62505117     301.3061    84.049341 
   64800   0.62773173    302.07024   -158.64453 
   64900   0.63022813    298.02372   -99.087147 
   65000   0.63119981     296.0777    -124.3937 
   65100   0.63054754    297.59723    31.670527 
   65200   0.62909536     297.4733    125.46613 
   65300   0.62779202    295.01539   -79.396921 
   65400   0.62742126    296.63254   -322.09846 
   65500   0.62814218    299.30307   -154.24062 
   65600   0.62887155    297.68501   -100.93939 
   65700     0.629622    301.36558    120.05106 
   65800    0.6305293    297.98702    253.59345 
   65900   0.63150837    295.25335    264.88532 
   66000   0.63169703    296.27066    124.51856 
   66100    0.6310168    300.65093     189.7328 
   66200   0.63008201    297.12256    193.18373 
   66300   0.62936188    298.83806    72.980976 
   66400   0.62850932    303.43353   -203.92744 
   66500   0.62791771    300.99113   -196.67286 
   66600   0.62764437    300.52488    339.72238 
   66700    0.6289343    297.05866   0.52879711 
   66800   0.63027955    300.41873   -630.26082 
   66900   0.63123682    301.53214     -116.554 
   67000   0.63212158    293.45323    71.239555 
   67100   0.63212925    292.73484    57.684497 
   67200   0.63073205    298.57495    287.71099 
   67300   0.62831198    298.32771   -14.503522 
   67400   0.62562298    298.80001    -51.11994 
   67500   0.62385199    297.78163    216.58787 
   67600   0.62288409    302.85539   -204.32573 
   67700   0.62265989    296.63804    121.53628 
   67800   0.62184958    295.86956    117.35544 
   67900   0.62136266    294.70554    94.657491 
   68000   0.62142922     295.5537   -147.44196 
   68100   0.62269164    299.12734    126.39302 
   68200    0.6242625    296.38951   -111.04178 
   68300   0.62554916    295.17655    -26.19352 
   68400    0.6269559    298.96676    428.56582 
   68500   0.62836203    302.07756   -171.53133 
   68600    0.6298761    298.71881   -124.33549 
   68700   0.63108756    297.71052    396.07986 
   68800   0.63149322    301.03615    391.15928 
   68900   0.63103451    296.25888    79.099581 
   69000   0.62926784    298.15917    66.270911 
   69100   0.62707965    294.82725    243.78629 
   69200   0.62581098    298.53108    171.13961 
   69300   0.62587824     301.5147   -364.43666 
   69400   0.62608756     296.0697   -432.62072 
   69500   0.62705395    291.67765    215.57182 
   69600   0.62838924    297.46674     261.0195 
   69700   0.62942272     301.7959   -333.29936 
   69800   0.63035869    300.25813    -247.5613 
   69900   0.63151914    299.44765    1.0956484 
   70000   0.63207862    295.34071    163.68712 
   70100   0.63114147    297.66629     243.4492 
   70200   0.62955561    300.79687   -307.71951 
   70300   0.62955658    296.25159   -244.86928 
   70400   0.63006737    297.73529    31.680963 
   70500   0.63066583    299.77408    142.16593 
   70600   0.63109529    294.19898    114.00096 
   70700   0.63096434    294.99465    44.199104 
   70800   0.63123853      298.361    92.569308 
   70900   0.63067409    299.24673  -0.77065036 
   71000   0.62947087    300.94623    150.91119 
   71100   0.62870645    294.72807    -177.0375 
   71200   0.62819483    297.32651    -330.8409 
   71300   0.62871037    301.19006    438.08087 
   71400   0.62895173    301.31863   -22.823515 
   71500   0.62884768    298.55195   -368.70983 
   71600   0.62880432    296.78448   -139.19291 
   71700   0.62871095    296.93609   -133.94875 
   71800   0.62928069    299.86019    220.71473 
   71900   0.62981945    301.01647    326.72603 
   72000   0.62970477    301.00115    78.989414 
   72100   0.62779614    298.96837    342.57807 
   72200   0.62480588    296.58129    336.82301 
   72300   0.62206171    296.66142   -355.25587 
   72400   0.62110597    298.04996   -105.32432 
   72500   0.62175706    300.38521    139.38604 
   72600   0.62222148    298.78736   -64.368045 
   72700    0.6224014    300.91158   -128.71359 
   72800   0.62307824    298.43998    147.72142 
   72900   0.62348801     295.3789    35.062555 
   73000   0.62322747     293.7705   -72.737403 
   73100   0.62232235    301.86179   -157.16837 
   73200   0.62128486    298.36047   -126.72246 
   73300   0.62042106    295.60521    90.413185 
   73400    0.6195224    294.37992    191.06745 
   73500   0.61969531    294.91375   -39.442385 
   73600   0.62200589    297.62871   -199.92956 
   73700    0.6246684    299.63415   -48.349058 
   73800   0.62644523    302.35887   -106.06849 
   73900   0.62727517      298.132    60.614586 
   74000   0.62739736    298.72252   -145.80369 
   74100   0.62717667    298.54179   -416.69946 
   74200   0.62612002    300.45106    -76.88328 
   74300    0.6245067    302.71638    155.59799 
   74400   0.62309155    297.91804   -37.658936 
   74500    0.6224369    297.03697   -308.21075 
   74600   0.62270002    299.89704   -290.20033 
   74700   0.62454828    297.71566   -215.96162 
   74800   0.62666177     298.5444   -182.49472 
   74900   0.62849123    297.23463   -134.90403 
   75000   0.63063103    301.15736    111.12856 
   75100   0.63283381    297.75401    255.33615 
   75200   0.63350883    296.11428     28.15672 
   75300   0.63301854    298.34638   -44.148972 
   75400   0.63244673    300.64291    -1.444885 
   75500   0.63207547    302.04027   -38.745441 
   75600   0.63199832    299.45503      229.826 
   75700   0.63181517    292.85823    255.56724 
   75800   0.63136816    296.07953   -195.04277 
   75900   0.62957219      297.248   -153.00739 
   76000   0.62688446    302.08354    65.001755 
   76100   0.62426626    299.18069   -245.57314 
   76200   0.62375427    293.56348    24.171935 
   76300    0.6246398    293.01796   -231.49903 
   76400   0.62585614    299.34497   -271.05469 
   76500   0.62724235    303.36215   -15.736471 
   76600   0.62829903    298.16605   -79.999436 
   76700   0.62886124    298.21623   -72.985754 
   76800   0.62877841    295.95262   -30.192345 
   76900   0.62900803    298.29603    -44.06308 
   77000     0.629857    301.22918   -23.357014 
   77100   0.63021894    303.66166   -35.317698 
   77200   0.62959758    295.08421    91.212141 
   77300   0.62782228     296.1146     275.3634 
   77400   0.62734876    296.64443    316.98804 
   77500   0.62704558    294.44649    216.83248 
   77600   0.62662652    292.18921    151.51072 
   77700   0.62645244     298.8655    -168.2812 
   77800   0.62618062    298.26441   -244.64966 
   77900   0.62562448    296.99604    187.45383 
   78000   0.62459183     296.9322    302.73129 
   78100   0.62495943    294.14325   -128.97151 
   78200   0.62622052    293.97482     -58.0356 
   78300   0.62679799    295.48217   -86.162131 
   78400   0.62709063    297.87472    30.212001 
   78500   0.62650746     299.5414   -183.03431 
   78600   0.62593198    294.21591   -297.43257 
   78700   0.62521207    297.00508    180.27849 
   78800   0.62527445    295.41192    20.748495 
   78900   0.62653552    302.81014   -263.23714 
   79000   0.62820002    301.39427    416.50366 
   79100   0.62952829    300.26117    250.99378 
   79200   0.63042957    299.60162   -214.84877 
   79300   0.63145042    301.27304    167.28287 
   79400   0.63214256    299.17381    34.348912 
   79500    0.6337282    296.33548   -350.07096 
   79600   0.63572732    291.63238    4.6837287 
   79700   0.63730429    297.29603    359.57399 
   79800   0.63843525    298.23549    323.94608 
   79900   0.63830719    296.32938   -42.329762 
   80000   0.63707221    299.92939    53.919803 
   80100   0.63380068    297.78303    66.240898 
   80200   0.62976332    302.06951    16.763698 
   80300   0.62608818    302.82223   -155.65467 
   80400   0.62365171    294.90973    226.57844 
   80500   0.62252027    294.59517    457.58778 
   80600    0.6224131    294.20913   -68.756562 
   80700   0.62276059    302.70109   -284.60618 
   80800   0.62296437    296.38088    381.00574 
   80900   0.62222787    297.22058    321.05521 
   81000   0.62089274    296.20748   -110.14164 
   81100   0.61942618    297.19554   -221.96738 
   81200   0.61962097    300.96259   -7.8184762 
   81300   0.62093028    301.28328    227.28277 
   81400   0.62324086    296.69035    24.633374 
   81500   0.62575825    298.51034   -11.234411 
   81600   0.62749097    302.09546    194.32569 
   81700   0.62877637    295.57913    288.12215 
   81800   0.62889636    294.34141   -272.81497 
   81900   0.62846388    296.16947   -59.192339 
   82000   0.62836566    303.20628    228.72569 
   82100   0.62840599    301.27354   -90.357155 
   82200   0.62886541    300.27711    52.236698 
   82300   0.62927999    294.42359   -227.18925 
   82400   0.63023916    295.13979   -153.01261 
   82500   0.63083034    294.88651   -233.22174 
   82600    0.6302397    295.39261   -217.43421 
   82700   0.63000928    298.96872   -270.39914 
   82800   0.63029646     298.2439  -0.80678342 
   82900   0.63073745     292.2678    205.01241 
   83000    0.6296986    296.88181   -166.17042 
   83100   0.62809578    294.00683   -423.37793 
   83200   0.62699058    300.64282    17.990047 
   83300   0.62649714    303.63746    117.00226 
   83400   0.62584404    308.47333    95.029651 
   83500   0.62619716     301.6146    3.7402168 
   83600   0.62604083    297.00328   -605.65017 
   83700   0.62614974    295.09251   -38.621163 
   83800   0.62636064    301.08456     36.74248 
   83900   0.62787069    303.26972   -518.93981 
   84000   0.63148874    295.74679   -154.53561 
   84100   0.63521546     295.0653    617.22039 
   84200   0.63697628    298.70146   -10.078573 
   84300    0.6360824    300.09351    110.34434 
   84400   0.63333964    295.13891    242.56574 
   84500   0.63048343    298.52296    175.28867 
   84600   0.62891936    299.95553    374.35869 
   84700   0.62790407    297.79144    239.36932 
   84800   0.62684481    299.27437   -233.86052 
   84900   0.62585874    299.85586    15.580197 
   85000   0.62548215    292.90484    82.310417 
   85100   0.62662941    298.31178     119.4042 
   85200   0.62872811    298.31093    195.49671 
   85300   0.63135091    297.96032    216.76805 
   85400   0.63230346    297.79382   -188.49081 
   85500   0.63255379    297.35534    82.294701 
   85600   0.63305103    296.08856   -40.035578 
   85700   0.63345565    295.67046   -311.77578 
   85800   0.63341035    299.49504   -64.472567 
   85900   0.63379964    296.62811   -3.5623416 
   86000    0.6341664      297.365    241.79047 
   86100    0.6334439    297.77557    65.615819 
   86200   0.63158777    301.74785   -153.73025 
   86300   0.62956042    301.23039    31.129517 
   86400   0.62774665    295.98644    -17.62236 
   86500   0.62770486    293.77579   -182.71907 
   86600   0.62870949    295.57719   -203.53043 
   86700    0.6310949    297.59417   -145.07653 
   86800    0.6332402    299.85835    82.562817 
   86900   0.63430037    299.98637   -23.290958 
   87000    0.6353968    293.42604   -364.11324 
   87100   0.63631015    295.21437    56.750846 
   87200   0.63630639    298.81882    756.47117 
   87300   0.63598936    302.02913    245.00219 
   87400   0.63591639    294.51029   -7.7948644 
   87500   0.63619097    296.81807    409.57784 
   87600   0.63630323    299.99129    153.26484 
   87700   0.63592547    300.90217    49.274876 
   87800   0.63502015    295.40983   -100.45706 
   87900   0.63298871    295.51219   -105.63271 
   88000   0.63110225    291.54634   -1.7854261 
   88100   0.62975335    296.24016    96.478153 
   88200   0.62866052    298.59674   -267.72977 
   88300   0.62831461    295.97369     10.37379 
   88400    0.6276777    301.12728    98.537634 
   88500   0.62794205    296.42913    132.63913 
   88600   0.62856895    292.41495   -161.80053 
   88700   0.62955402    294.15432   -268.24113 
   88800   0.63092759    297.64502    268.72445 
   88900   0.63175543    300.29273    464.40213 
   89000   0.63127554    305.25592    79.387853 
   89100   0.63057207    301.53155    18.969097 
   89200   0.63025599    300.67901    127.28638 
   89300   0.63013254    295.09774   -47.365228 
   89400    0.6303886    294.60124   -9.7548783 
   89500   0.63127693    304.29498   -137.74973 
   89600   0.63220613    301.88241    22.174082 
   89700    0.6328674    300.89283   -111.25988 
   89800   0.63310998    298.02749   -65.263558 
   89900   0.63224206    299.35851    35.045353 
   90000   0.63183954    298.49559    143.20477 
   90100   0.63155785    299.25635    97.260053 
   90200   0.63103529    304.19606    91.188574 
   90300    0.6304375    299.92893   -245.59477 
   90400   0.63067786    299.48183   -212.48632 
   90500   0.63173375    295.92115   -56.350495 
   90600   0.63305518    296.61198    96.848529 
   90700   0.63383946    302.67964    -275.5179 
   90800   0.63395441     299.7507   -204.83026 
   90900   0.63397569    301.62307    330.77476 
   91000   0.63388748    297.54339   -108.56754 
   91100   0.63457683    297.88636   -274.88356 
   91200   0.63599279    300.82357    57.496056 
   91300   0.63682162    300.47299    104.48553 
   91400   0.63698156    298.37177    203.58546 
   91500    0.6371575    296.04786   -147.84321 
   91600   0.63778525    297.09495   -221.99128 
   91700   0.63851229    297.08223    278.04037 
   91800   0.63940572    295.67838    577.88352 
   91900   0.64025116    301.66032    234.41404 
   92000   0.64017697    298.16388   -69.857761 
   92100   0.63808456    295.79075    44.506362 
   92200   0.63521566    295.27449   -8.0891017 
   92300   0.63268807    301.70139    264.34938 
   92400   0.63150628    302.23266    100.43593 
   92500   0.63111695    300.64483   -107.38753 
   92600   0.63111238    297.07846    77.545663 
   92700   0.63152816    298.18679    238.54228 
   92800   0.63187423    297.30734   -185.62162 
   92900   0.63315361    301.70397   -178.91647 
   93000   0.63506688    300.54619    112.40714 
   93100   0.63622044    303.69851    335.63683 
   93200   0.63777949     298.0719    559.51359 
   93300   0.63780876    297.66127    40.889849 
   93400   0.63776265    297.96885   -49.361985 
   93500   0.63818818    303.42504   -305.03573 
   93600   0.63994086     298.8118   -171.37708 
   93700   0.64219027    296.71411    158.24056 
   93800   0.64311549    297.77277   -236.71906 
   93900   0.64350371    299.39962      279.361 
   94000   0.64217761    300.14898    258.89174 
   94100   0.63889957    300.29871   -239.25102 
   94200   0.63542723    301.67555   -334.50235 
   94300   0.63325273    299.40521    -246.3599 
   94400    0.6321824    297.10482   -195.68314 
   94500   0.63238193    302.19867    166.16465 
   94600   0.63300716    297.84345    63.534688 
   94700   0.63410852    298.99751   -194.68059 
   94800   0.63505883    293.41787    68.588646 
   94900   0.63533017    296.36786    110.27478 
   95000   0.63541483    294.86735   -124.84543 
   95100   0.63485556    299.41489    17.575155 
   95200      0.63376    300.01155   -15.527865 
   95300   0.63320566     297.4038   -171.99449 
   95400   0.63325502    293.17644   -78.577748 
   95500   0.63441485      296.865   -112.09729 
   95600   0.63607338     300.7586   -129.04572 
   95700   0.63701595    301.36482    255.88078 
   95800   0.63762724    299.57841    156.02819 
   95900   0.63853102    296.88883   -141.53618 
   96000   0.63956553    297.29791    200.78936 
   96100   0.63983351    299.79187    344.45393 
   96200   0.63991297    300.17323    127.57388 
   96300   0.64059359    293.09225    226.19418 
   96400   0.64109322    291.34169    74.023259 
   96500   0.64070863    295.42692   -169.26159 
   96600   0.63927269    297.19474    254.29352 
   96700   0.63677203    301.43438    309.07641 
   96800   0.63494454    296.46026   -218.51926 
   96900   0.63357033    295.07733   -145.36078 
   97000   0.63271827    295.95992    16.847596 
   97100   0.63317202    300.38764   -274.20049 
   97200   0.63484812    298.56218    96.046197 
   97300   0.63678379    297.45278   -10.964729 
   97400   0.63808795    294.92753   -3.5674482 
   97500   0.63857035    302.03616    115.03529 
   97600   0.63786992    301.70377   -34.997409 
   97700   0.63654743    302.98345   -367.11732 
   97800   0.63598095    299.95876   -139.95974 
   97900   0.63653756    297.12749    370.76527 
   98000   0.63782994    300.56122    123.55153 
   98100   0.63999346    295.04799    36.723427 
   98200   0.64058507    303.34451   -141.25767 
   98300   0.63974349    298.06582   -73.771906 
   98400    0.6378547    293.82643   -125.66631 
   98500   0.63601233    295.10904   -18.712633 
   98600   0.63514266    297.10757   -78.105928 
   98700   0.63523999    301.38063   -176.23938 
   98800   0.63578506     297.6549    35.583509 
   98900   0.63619153    294.62164    230.43809 
   99000   0.63633473    293.05151   -137.94174 
   99100   0.63605163    295.84518   -42.702816 
   99200   0.63513754    296.32306    91.474097 
   99300   0.63443868    296.88595    29.578386 
   99400   0.63343329     299.2031   -139.76921 
   99500   0.63352664    296.87445   -84.638157 
   99600   0.63346276    296.59672   -340.38718 
   99700    0.6343142    294.80766   -111.17932 
   99800   0.63505699    302.64371   -146.35297 
   99900   0.63543764    299.59246   -110.71252 
  100000   0.63563694     295.7723    143.06452 
  100100   0.63501026    294.21069    -3.287892 
  100200   0.63409219    297.21143    335.48547 
  100300    0.6330019    300.28565    261.57576 
  100400   0.63299369    297.88481   -325.89581 
  100500   0.63418182    300.86431   -233.86541 
  100600   0.63613814    297.31272    474.63593 
  100700   0.63658056    297.06372   -118.44087 
  100800   0.63590615     299.1454   -281.62418 
  100900   0.63461256    296.75061   -114.39311 
  101000   0.63375947    298.67973   -4.4925895 
  101100   0.63359153    295.98678    67.409589 
  101200   0.63273601     299.0169   -239.85138 
  101300   0.63159546    297.07982   -208.50993 
  101400   0.62991996    298.13742    39.237997 
  101500   0.62883934    292.86569    320.68969 
  101600   0.62881091    298.18115    188.10388 
  101700   0.63026921    299.04254    616.16948 
  101800   0.63197913    298.20217    370.57133 
  101900   0.63334182    296.51175    125.83916 
  102000   0.63398458     295.0148    330.01059 
  102100   0.63429791    296.32421    17.730306 
  102200   0.63493556     296.6744   -76.302491 
  102300   0.63551783    299.28738    352.30879 
  102400   0.63602812     299.4756    255.33534 
  102500   0.63578848    296.93803    48.663835 
  102600   0.63515087    294.35682   -188.64592 
  102700   0.63521676    295.13529   -138.94352 
  102800   0.63673773    298.30973     309.0074 
  102900   0.63802917    299.51612     181.7584 
  103000   0.63874827    299.07453   -271.50996 
  103100   0.63868067    295.64398    11.234685 
  103200   0.63819586    294.84862    462.55043 
  103300   0.63763408    293.45618   -382.49249 
  103400   0.63793511    299.26425   -249.19228 
  103500   0.63783217    298.12359    178.10356 
  103600   0.63728406    299.06378   -70.062924 
  103700   0.63732876    294.49901   -156.08357 
  103800   0.63723786    296.09527   -267.07158 
  103900   0.63684597    297.53437   -268.53656 
  104000   0.63550795    303.08629    43.933874 
  104100   0.63415586    302.34313     -402.046 
  104200    0.6348269    295.75626   -274.83034 
  104300   0.63639385    296.40228   -562.29892 
  104400   0.63834201    304.07898   -258.75597 
  104500   0.64026232    303.14589    97.131942 
  104600   0.64086092    297.22914    474.03589 
  104700   0.64099649    297.25803   -55.961847 
  104800   0.64060326    296.52682   -310.38214 
  104900   0.64002038    299.46154    398.52874 
  105000   0.63851724    299.85407     217.7096 
  105100   0.63619424    299.11181   -509.74401 
  105200   0.63439258    295.72851   -249.87354 
  105300   0.63393431    295.24291   -8.9507848 
  105400   0.63499313    297.57328   -227.00076 
  105500    0.6365416     297.6344    315.05052 
  105600    0.6368556    300.53533    132.30107 
  105700   0.63561891     302.0406   -290.71724 
  105800   0.63461122    292.78453    21.783956 
  105900   0.63510272     291.6686   -60.986201 
  106000   0.63587479    294.81713   -442.71193 
  106100   0.63672616    297.86711    101.25015 
  106200   0.63750455    299.84385    147.13949 
  106300      0.63767    295.37399    308.99605 
  106400   0.63652092    295.13629   -53.805359 
  106500   0.63580037    291.41849   -229.04856 
  106600   0.63549799    294.82962   -394.79502 
  106700   0.63556373    300.81899    235.30533 
  106800   0.63532455    299.63602     127.6381 
  106900   0.63452722    297.70078    11.543367 
  107000   0.63279692    299.19259   -328.05287 
  107100   0.63195609    297.96423   -199.20078 
  107200   0.63127268    301.47189     89.94989 
  107300   0.63116814    297.54598   -242.06909 
  107400    0.6316968    294.31273   -151.36492 
  107500    0.6339646    291.96777    192.22179 
  107600   0.63703163    298.86824   -117.85366 
  107700   0.63882885    299.96077   -153.91855 
  107800   0.63859214    301.73658    61.805758 
  107900   0.63750621    300.25615    294.98628 
  108000   0.63644111    298.92135   -255.82323 
  108100     0.636666    293.01576   -386.45778 
  108200   0.63702222    297.64809    -350.3387 
  108300   0.63816634    301.42807    125.00258 
  108400    0.6385688    302.94061     203.0963 
  108500   0.63926032    299.78267   -318.97705 
  108600   0.64041728    297.65225    126.59447 
  108700   0.64127292    298.64968    130.81334 
  108800   0.64140181     296.4364    8.0020969 
  108900   0.64098513    297.32924    355.65647 
  109000   0.63949632    299.67287    10.791472 
  109100   0.63757595    298.97338    -125.1418 
  109200   0.63586602     296.7677   -72.057895 
  109300   0.63556053    292.99192    28.495021 
  109400   0.63578521    297.41906   -132.04831 
  109500    0.6355111     302.6316   -9.7513641 
  109600   0.63554962    299.56532   -12.794435 
  109700   0.63594348    296.38776   -148.45914 
  109800   0.63641948    290.55454   -319.84502 
  109900   0.63740583    294.23294   -23.020846 
  110000   0.63822187    300.93543     331.6973 
  110100   0.63911095    301.76566    466.32938 
  110200   0.63931073    296.21758    94.749539 
  110300   0.63923804     298.4427   -145.40177 
  110400   0.63925382    293.53295    134.66311 
  110500   0.63865324    296.82768    274.05762 
  110600   0.63690795    301.50332   -168.81869 
  110700    0.6342691    298.49168   -3.1155787 
  110800   0.63146618    296.87683    211.13184 
  110900   0.63068022    294.52218   -193.67037 
  111000   0.63174917    298.95772     27.05259 
  111100   0.63350766    301.07379   -205.95187 
  111200    0.6350294     301.7125   -47.243402 
  111300   0.63635849    298.07155    132.01749 
  111400   0.63737749    294.98272   -198.22053 
  111500   0.63773672    296.02451   -53.425177 
  111600   0.63784548    298.82965     402.8271 
  111700   0.63776332     301.1237    315.43136 
  111800   0.63657618    301.84679   -156.82611 
  111900   0.63570333    297.68981    111.21984 
  112000   0.63635566     292.9376   -222.04485 
  112100   0.63833857    298.88427    103.45963 
  112200   0.64014349    302.53984    146.85873 
  112300   0.64154309    300.08164    55.261374 
  112400     0.641321    292.96873    135.73973 
  112500   0.63997087     297.5942    624.92099 
  112600   0.63872733    298.40053     294.7024 
  112700   0.63630592    298.17093   -51.738013 
  112800   0.63427838    294.79501    300.27756 
  112900   0.63312078    297.15329   -95.661799 
  113000   0.63295042    296.86607    126.62119 
  113100   0.63396524    301.15768     320.1093 
  113200   0.63583829    301.77409    -368.8264 
  113300    0.6378973    302.26092   -257.89671 
  113400   0.64005593    296.86995    269.00753 
  113500   0.64087551    296.81571    285.10072 
  113600   0.64075767    298.95991    135.23505 
  113700   0.63920404    299.78352    158.41613 
  113800   0.63771892    300.60963    147.05031 
  113900   0.63683348     295.8874    147.96271 
  114000   0.63626082    295.66593   -74.821503 
  114100   0.63628323    299.27491    52.098254 
  114200   0.63655128     299.1143    267.97561 
  114300   0.63692843    299.22379    354.77202 
  114400   0.63749278    297.58253    11.612029 
  114500   0.63848829    297.48363   -396.04152 
  114600   0.63960138    300.44579   -219.24335 
  114700   0.64080745     302.1757    182.35276 
  114800   0.64199993    299.85267    231.04693 
  114900   0.64224762    297.03583    -300.0642 
  115000   0.64222328    299.95563   -34.347429 
  115100   0.64185575    298.47969    93.796517 
  115200   0.64104677    295.35074    -440.4793 
  115300   0.63996639    298.23508    -246.9823 
  115400   0.63853846    295.46179    128.06069 
  115500   0.63771861    294.66483    237.65566 
  115600   0.63730971    291.67584    15.847474 
  115700   0.63705406    297.29148    -294.1042 
  115800   0.63658147    298.54304   -232.32822 
  115900   0.63633264    295.11689    32.038625 
  116000   0.63627718    294.78743    61.313919 
  116100   0.63567112    295.53468    183.20298 
  116200   0.63508165    298.86409   -151.56282 
  116300   0.63477486    302.08634   -9.0888197 
  116400   0.63509279    301.62203    145.24018 
  116500   0.63519111    297.96021    504.73892 
  116600   0.63462163    297.03859   -155.80015 
  116700   0.63521727    303.31414    181.50208 
  116800     0.636266    298.46234    431.65678 
  116900   0.63670828     297.8095    114.66685 
  117000   0.63667518    296.64316   -280.55926 
  117100   0.63617311    297.76242   -230.84243 
  117200   0.63607595    299.09124   -223.91185 
  117300   0.63668167    299.94223    429.87241 
  117400   0.63671821    302.48558   -202.04091 
  117500   0.63744047    298.31539    -372.1192 
  117600   0.63805006    294.72356    74.718718 
  117700    0.6391466    296.35254     414.2551 
  117800   0.64101036    299.10192   -360.13824 
  117900   0.64253597    301.37738   -276.52737 
  118000    0.6441255    298.08892    85.657967 
  118100   0.64330467    300.30082    -56.90991 
  118200   0.64075418    295.31013   -424.56193 
  118300   0.63855829    295.68852   -471.01328 
  118400   0.63746813    296.99792   -40.289252 
  118500   0.63690752      303.131   -136.90798 
  118600   0.63735032    299.58913   -162.12361 
  118700    0.6377038    301.93215    212.55905 
  118800   0.63778153    299.96697    457.70434 
  118900   0.63742602    294.96639   -7.6259807 
  119000   0.63756024    300.85484   -43.368321 
  119100   0.63848776    301.24211    238.05371 
  119200   0.63984103    299.09691    128.80098 
  119300   0.64041602    297.91146   -468.54054 
  119400   0.64207812    297.38887   -27.752479 
  119500   0.64474068    295.67034    512.33358 
  119600    0.6468652    298.98445    4.0145371 
  119700   0.64782749    303.60952   -135.77888 
  119800   0.64640256    302.99159   -47.046322 
  119900   0.64333882    298.05863    383.28894 
  120000   0.63971469    294.61785    239.13894 
  120100   0.63708107    297.29005   -228.91799 
  120200   0.63671158    298.19442    12.389672 
  120300   0.63742697    298.35191    865.94388 
  120400   0.63851214    301.25734    57.607891 
  120500   0.64018717    298.93936   -91.824245 
  120600   0.64148841    296.82499   -145.93996 
  120700   0.64113587    300.62061   -139.12083 
  120800   0.64080377    300.72082   -16.108477 
  120900   0.64171548    294.56213    652.99753 
  121000   0.64211447    298.64454   -263.69005 
  121100   0.64199627    299.00411   -545.64746 
  121200   0.64194219    299.98031   -37.501896 
  121300   0.64295973    297.61406    208.10022 
  121400   0.64472795    294.18359    -108.8441 
  121500   0.64728499    293.70226    31.755083 
  121600   0.64908523    300.30998   -61.840776 
  121700   0.64925194    300.59322    221.56072 
  121800   0.64659439    299.04966    332.06333 
  121900   0.64216393    294.18059   -263.60232 
  122000   0.63931677    293.70494   -134.99066 
  122100   0.63848285    299.27255    101.44649 
  122200   0.63996902     298.8161   -380.66998 
  122300   0.64228653    299.07136   -450.65969 
  122400   0.64354905    298.71991    -80.61938 
  122500   0.64453489    296.29289    104.94227 
  122600   0.64561159    295.36468    352.87152 
  122700   0.64595715    298.50737    127.52911 
  122800   0.64619221    299.32778   -284.62985 
  122900   0.64720788    296.14173   -374.78109 
  123000    0.6480719    294.73485    350.15233 
  123100   0.64813902    296.22926    244.79014 
  123200   0.64796018    299.29067   -369.42405 
  123300   0.64742518    302.61639   -324.48846 
  123400   0.64718368    299.65505    19.678641 
  123500   0.64710598    295.33437   -231.89567 
  123600   0.64623217    296.32052    30.887117 
  123700   0.64451964    299.33565    180.72614 
  123800    0.6424226    302.42689   -346.53624 
  123900   0.64168973    298.55332    25.176079 
  124000   0.64186117    292.55472     285.4613 
  124100   0.64248251    297.84005    43.010187 
  124200   0.64373461    300.22602    81.208486 
  124300   0.64433751    301.44834    256.49864 
  124400   0.64449569    299.70252    262.34457 
  124500   0.64418732    295.42321    400.09919 
  124600   0.64446361    299.91893     -170.505 
  124700   0.64515346    296.91926   -402.26383 
  124800   0.64520781    296.81962    245.79188 
  124900   0.64369498    302.77707   -83.962049 
  125000   0.64164811    299.89792   -825.47788 
  125100    0.6407642    295.68264   -3.9289693 
  125200   0.63971873    295.72041    413.11281 
  125300   0.63997132    297.96965   -243.99222 
  125400   0.64068594    297.41964   -502.86807 
  125500   0.64178584     300.1068   -106.55513 
  125600   0.64332686    299.72862    316.56067 
  125700   0.64379211    298.52636    99.483036 
  125800   0.64476419    297.72069    230.08675 
  125900      0.64542    296.73966   -27.672377 
  126000   0.64551779    298.27299    61.691911 
  126100    0.6448045    296.39259    176.07089 
  126200   0.64283311    302.36681   -39.507713 
  126300   0.64129573    299.69397   -255.13418 
  126400   0.63988009    293.67236   -415.73084 
  126500   0.63997802    294.60808   -473.35488 
  126600   0.64225935    292.73617    -167.8816 
  126700   0.64492037    300.61555    290.29463 
  126800   0.64680931    305.21984    398.48386 
  126900   0.64766736    302.93299   -49.009093 
  127000    0.6476634    297.51276   -142.24166 
  127100     0.646802    298.32521   -109.36177 
  127200   0.64619352    296.52921    37.182161 
  127300   0.64586894     294.9119   -206.48797 
  127400   0.64497492     302.5025   -194.49378 
  127500   0.64414831    297.31114   -221.59069 
  127600   0.64371766    295.71687   -20.575654 
  127700   0.64382947    295.10452   -37.323745 
  127800     0.644635    299.42632   -470.05934 
  127900    0.6464027    302.93808   -86.526548 
  128000   0.64865902    301.77957    58.491954 
  128100   0.64993324    298.40755    279.52757 
  128200   0.64978403    297.58358    102.85227 
  128300   0.64905595    298.64116    257.38958 
  128400   0.64799743    296.93563    31.759039 
  128500   0.64705557    297.73305    94.472417 
  128600   0.64624581    299.87134     456.3011 
  128700   0.64497178     298.2154   -63.098977 
  128800   0.64349309     298.9056   -346.58899 
  128900   0.64282904    296.88645    224.05574 
  129000   0.64369253    295.41271     44.42673 
  129100   0.64453769    300.73887    183.00686 
  129200    0.6437865    299.93512   -23.268633 
  129300   0.64167851    297.38632    370.47272 
  129400    0.6393613    299.98463   -60.488198 
  129500   0.63820934    297.22118   -11.246354 
  129600   0.63894326    301.31895   -556.29965 
  129700   0.64102519    306.02718    206.85698 
  129800   0.64174564    304.54676    555.32907 
  129900   0.64188982    298.42218    187.91494 
  130000   0.64170629    294.72158   -406.95163 
  130100   0.64171589    300.10687    108.44877 
  130200   0.64266364    300.20826    269.37655 
  130300   0.64395758    301.23198    39.709227 
  130400   0.64439635    298.26841   -261.47005 
  130500   0.64341559    298.62208    386.37669 
  130600   0.64170013    297.17271     269.7599 
  130700   0.64108032    295.53468   -269.92849 
  130800   0.64187876    296.69826   -356.74965 
  130900   0.64290013    300.81091    9.1677161 
  131000   0.64320853    301.53618    434.22971 
  131100   0.64244444    297.39577   -123.78435 
  131200   0.64106722    292.53149    45.651696 
  131300   0.63842099     299.2789   -123.58373 
  131400   0.63590788    301.50443   -219.95258 
  131500   0.63433594    302.72633   -53.887699 
  131600   0.63371047    303.24275   -284.44508 
  131700   0.63389258     297.8267   -204.37301 
  131800   0.63485089    294.63066    74.234438 
  131900   0.63608602    296.58559    297.73211 
  132000   0.63729329     300.6824    297.68242 
  132100   0.63926948    299.80978   -27.154578 
  132200   0.64205065    296.05174   -105.14535 
  132300   0.64487255    297.18733     190.5965 
  132400   0.64579122     298.7207    381.24515 
  132500   0.64562339    299.27122   -131.87398 
  132600   0.64491399    295.03668   -57.329535 
  132700   0.64384964    292.53187    48.024077 
  132800   0.64463053    295.83778    -13.64188 
  132900    0.6459945    301.64481   -401.94091 
  133000   0.64680009    296.92879    198.87635 
  133100   0.64609068    294.64594    186.10729 
  133200   0.64553231    295.59968   -301.44603 
  133300   0.64628162    295.09135   -5.0906275 
  133400   0.64689918    297.07301    74.079546 
  133500   0.64688931    296.56682   -188.62364 
  133600   0.64651258    300.66632    230.31753 
  133700   0.64628237    300.87697   -65.107797 
  133800   0.64712499    300.71109   -198.06052 
  133900   0.64798584    301.71737   -430.19352 
  134000   0.64917705    297.83399     167.4162 
  134100   0.64937153    296.73503    266.62306 
  134200   0.64913006    302.04537   -220.96868 
  134300   0.64879819    302.52309   -276.14699 
  134400   0.64889455    298.04905    92.672403 
  134500   0.64944742    295.61062    33.405065 
  134600   0.65045342    298.17985   -135.09905 
  134700   0.65107797    299.63823    91.741659 
  134800   0.64989529    300.57707   -159.70959 
  134900   0.64695912    301.57464   -152.34856 
  135000   0.64396141    291.85403    172.18962 
  135100   0.64081073    295.95888   -430.35256 
  135200   0.63889107    300.61162   -175.59287 
  135300    0.6388009    300.21183    237.37074 
  135400   0.63918938    298.74272    1.1313954 
  135500   0.63954328    305.76159   -209.36356 
  135600   0.63976393    302.26062   -282.04364 
  135700    0.6403454    298.72486   -303.52431 
  135800   0.64162814    297.10594   -350.43495 
  135900   0.64288101    295.15209    101.23652 
  136000   0.64326925    297.25078   -157.27588 
  136100   0.64303934    298.79551   -91.017832 
  136200   0.64219722    293.46682   -392.10067 
  136300   0.64102363    295.28679   -182.47108 
  136400   0.63977823    295.08104   -66.081396 
  136500   0.63952737    293.85987    162.13538 
  136600   0.63889571    297.22116   -42.409822 
  136700     0.638732    299.97393    175.59089 
  136800   0.63809058    297.53518    122.43114 
  136900   0.63721246    301.44088   -58.970388 
  137000   0.63721845     300.7728    34.948345 
  137100   0.63705188    297.82792   -246.80402 
  137200   0.63828979    296.68214   -132.83545 
  137300   0.64012547    296.70747    41.085823 
  137400   0.64178262    295.18711   -36.893038 
  137500   0.64243205    298.94004   -39.287876 
  137600   0.64210516     301.4566    172.16296 
  137700   0.64081141     299.6425    51.491342 
  137800   0.63971317    290.88229    -193.2644 
  137900   0.63797829    294.96819     437.5114 
  138000   0.63671499    297.76538     510.3065 
  138100   0.63675333    297.82123   -1.8832204 
  138200    0.6377435    298.56946    287.37505 
  138300    0.6387349    293.24031    341.78652 
  138400     0.640096    291.06869    64.730416 
  138500   0.64211083    296.60681    20.910501 
  138600   0.64341828    297.26344   -359.47102 
  138700   0.64412421    299.26677   -278.23218 
  138800   0.64437612    296.05637    279.28231 
  138900   0.64429449     297.6809    318.79002 
  139000   0.64369674    296.93243   -177.99126 
  139100   0.64294395    296.58867   -101.31586 
  139200   0.64217266    299.82833    179.08309 
  139300   0.64173227    299.95498    189.23818 
  139400   0.64191269    298.60739    70.457118 
  139500   0.64176645    303.23099    73.826546 
  139600   0.64076627    299.29925   -58.771873 
  139700   0.63947576    299.84106     -239.876 
  139800   0.63912233    296.47404   -29.660909 
  139900   0.63963393     298.6158   -195.37528 
  140000   0.64049789    301.59187   -399.38305 
  140100   0.64164431    300.01564     191.7169 
  140200   0.64258359    300.93076    356.79474 
  140300   0.64346393     297.9653   -93.252907 
  140400    0.6448059    296.73583   -446.26274 
  140500    0.6462959    295.38529   -81.321383 
  140600   0.64746211    296.70546    120.90005 
  140700   0.64827417     296.7505    134.38671 
  140800   0.64859972     298.3038   -281.67144 
  140900   0.64870695    298.68276   -133.71619 
  141000   0.64816193    301.92891    312.24362 
  141100   0.64672507    297.10687   -216.71893 
  141200   0.64522382    292.00131    -620.3866 
  141300   0.64500548    298.30496   -240.19145 
  141400   0.64513891     299.7373   -261.20189 
  141500   0.64599954    299.56872    362.80693 
  141600   0.64655341     297.8683     1.535469 
  141700   0.64666287    295.17634    24.126272 
  141800   0.64588775    296.14064    -331.2071 
  141900   0.64424404    297.24769    -111.9218 
  142000   0.64267741    298.33588    220.93113 
  142100   0.64072273    301.33038     199.7481 
  142200   0.63954402    297.97185   -231.51725 
  142300   0.64016619     296.4666   -142.79592 
  142400   0.64096586    295.38909    236.02127 
  142500   0.64155477    303.62704    342.60251 
  142600   0.64196433    299.69553   -193.35269 
  142700   0.64243936    297.88721   -17.918169 
  142800   0.64313533    296.66941    407.18216 
  142900   0.64303841    299.37749    110.23882 
  143000   0.64268969    298.17422   -292.87519 
  143100   0.64213808    301.44873   -400.86442 
  143200    0.6422686    298.73352    153.71994 
  143300   0.64274121    295.46552    358.51424 
  143400   0.64438744    293.49196   -18.817299 
  143500   0.64645766    297.20959   -448.17539 
  143600   0.64794615    300.28392   -51.560773 
  143700   0.64875541     298.2829    628.25967 
  143800   0.64853683    296.60622    822.04584 
  143900   0.64662987     296.9565   -59.784046 
  144000   0.64525911    294.29453   -203.21868 
  144100   0.64386784    290.85607   -224.60723 
  144200   0.64348019    295.07131    88.147305 
  144300   0.64426096    299.30891    236.19414 
  144400   0.64530898    297.43137    53.799481 
  144500   0.64579246    301.70289    131.58348 
  144600   0.64527005    296.09883    375.85771 
  144700   0.64460382    293.90095    146.75087 
  144800   0.64392206    293.99614   -295.36956 
  144900   0.64342492    297.23578    159.34553 
  145000   0.64391807    298.00565     484.0181 
  145100   0.64467773    298.79182   -14.736169 
  145200   0.64558588    298.80526    268.10961 
  145300   0.64610839    294.00893    350.73837 
  145400    0.6463617     297.2571    43.932895 
  145500   0.64673999    302.40273    16.160072 
  145600   0.64693777    298.47482    -212.9238 
  145700   0.64652943    295.57108   -40.429965 
  145800   0.64556727    294.77865    258.61854 
  145900     0.644869    297.24463    127.90753 
  146000   0.64393897     300.9149   -109.82442 
  146100   0.64350887    297.77657    5.2596301 
  146200   0.64321674    299.70376   -23.229826 
  146300   0.64333168    298.25591    220.31486 
  146400   0.64407634    297.02892    7.8031999 
  146500   0.64599629    300.56956    -25.75602 
  146600   0.64764566    299.72764   -100.73824 
  146700   0.64795659     299.8356     309.3036 
  146800   0.64606562    295.40816    48.435727 
  146900   0.64345933    295.16903   -98.657194 
  147000    0.6409881    300.92571   -15.742779 
  147100   0.64027432    302.71344   -223.40423 
  147200    0.6411301    300.94205   -442.01442 
  147300   0.64308909    293.85787   -232.59878 
  147400   0.64524214    294.39472   -120.78895 
  147500   0.64658732    300.84126   -47.261403 
  147600    0.6470717    300.60362    462.60292 
  147700   0.64661918    297.16358    157.35757 
  147800   0.64667384    295.31879   -508.80082 
  147900   0.64647809     300.3596   -346.58624 
  148000   0.64682907    298.50854    505.60966 
  148100   0.64717452    302.91684    4.6766467 
  148200    0.6479428    303.17111   -458.95693 
  148300   0.64926825    296.61121   -86.451633 
  148400   0.65022371    298.85085    156.53279 
  148500    0.6510848    297.00487    239.27161 
  148600    0.6512217    299.70362   -132.12489 
  148700   0.65107597    295.25649    121.11317 
  148800   0.64995116    297.07064    286.16711 
  148900    0.6490249     298.0274    181.72765 
  149000   0.64838219    300.90965   -441.46719 
  149100   0.64761615    301.09866   -21.626295 
  149200   0.64680297     295.8436    243.09518 
  149300   0.64636332    295.44604   -205.82637 
  149400    0.6470692    297.61203   -157.48065 
  149500   0.64899824     300.9421     65.14746 
  149600   0.65058381    299.79339   -168.26725 
  149700   0.65138061    301.12058   -145.79254 
  149800   0.65164171    299.81246    106.38838 
  149900   0.65112719    296.40335   -112.04753 
  150000   0.65042658    295.00362   -421.00533 
  150100   0.64984308    295.64036    380.30181 
  150200   0.64895932    299.17532     62.62028 
  150300    0.6475242    297.76303    -274.1643 
  150400   0.64602147    296.60517    82.324312 
  150500   0.64339015    297.04167   -25.317523 
  150600   0.64132083    299.04025    224.34842 
  150700   0.63969167    296.66049   -25.567045 
  150800   0.63954064     296.4234   -141.45805 
  150900   0.64079376    294.98066    72.430276 
  151000   0.64256324    296.68984    222.50983 
  151100   0.64516631    301.65419   -326.98132 
  151200    0.6466958    303.30729   -425.66979 
  151300   0.64701104    296.79722    125.85513 
  151400   0.64644847    301.02931    209.45151 
  151500   0.64548288    297.63797   -47.600601 
  151600   0.64508413    299.63466 -0.093655544 
  151700   0.64508001     303.4418    63.839802 
  151800   0.64448859    298.31573    515.14149 
  151900   0.64270978     296.8031    91.728221 
  152000   0.64176503    294.03559    120.54131 
  152100    0.6411543    292.22451   -211.57278 
  152200   0.64096015    296.89198   -92.700575 
  152300   0.64149249    295.08684    -114.4217 
  152400   0.64215594    297.87403    24.185758 
  152500   0.64169702    300.64779   -483.69752 
  152600   0.64049375    296.14024   -306.18617 
  152700   0.64027912    295.07597    478.42832 
  152800   0.64083011    299.70136    161.12145 
  152900   0.64284119    300.69521    -425.0939 
  153000   0.64474264    299.54461   -138.30079 
  153100   0.64613348     297.4959     580.3289 
  153200   0.64655728    297.25561    713.71173 
  153300   0.64607433    294.83398   -29.226513 
  153400   0.64543773    295.41292   -445.94325 
  153500    0.6454116    295.47474    62.626353 
  153600   0.64566829    301.60158    167.52813 
  153700   0.64590371    301.25682   -507.70472 
  153800    0.6456701    298.73981   -443.25708 
  153900   0.64524602    295.54293    190.69591 
  154000    0.6444351    297.49548   -93.295958 
  154100   0.64322927    301.42488   -432.64647 
  154200   0.64252327    298.73318   -233.56904 
  154300   0.64276565    296.08252    -197.1581 
  154400    0.6438336    296.43447    358.71953 
  154500   0.64409631    299.84972    252.69821 
  154600   0.64443517    299.82049   -149.70445 
  154700    0.6452158    299.84532   -202.81442 
  154800   0.64569618    298.58199    215.89321 
  154900   0.64624371    298.57068    67.223418 
  155000   0.64719039    292.73825   -346.52967 
  155100   0.64821734    292.36291   -606.82724 
  155200   0.64943634    299.28622   -385.23547 
  155300   0.65081738    300.55631    24.634989 
  155400   0.65162958     298.5649    427.23218 
  155500   0.65082163    299.51512   -279.69939 
  155600   0.64981113     292.9282   -352.50435 
  155700    0.6481874    291.40396    261.00501 
  155800     0.647691    294.89704    195.78325 
  155900    0.6490435    299.36795   -188.15875 
  156000   0.65094361     299.3581   -123.04787 
  156100   0.65185926      299.443   -47.927921 
  156200   0.65141575    297.75176    377.96386 
  156300    0.6500005    294.31358    69.430362 
  156400   0.64854021    297.97464   -236.17092 
  156500   0.64733061    298.26708   -191.62574 
  156600   0.64693175    298.45388    174.42118 
  156700   0.64705446    301.78832    83.274957 
  156800   0.64767714    291.58971   -315.42357 
  156900   0.64854711    297.26299   -26.261542 
  157000   0.64963597    296.09742    277.31054 
  157100   0.64962532    298.90175    194.97531 
  157200   0.64920229    298.72808    177.85058 
  157300   0.64810296     299.8341   -157.59634 
  157400   0.64747738    294.35927    160.41864 
  157500   0.64665192    296.32421    30.898751 
  157600   0.64672472    296.25412    133.53619 
  157700   0.64682478    299.32933   -430.78049 
  157800   0.64670601    300.17573   -111.35248 
  157900   0.64625967       297.53    568.86234 
  158000   0.64518535    292.30156    452.51147 
  158100   0.64489989    294.20854   -432.47405 
  158200   0.64577662    294.11984   -483.01841 
  158300   0.64598061    300.57356   -41.679629 
  158400   0.64580414    299.26222    576.47901 
  158500   0.64504049    299.89183    226.27394 
  158600   0.64461378     293.4573   -291.84801 
  158700   0.64454419    298.41957    -239.1475 
  158800   0.64519897    300.52754    406.60357 
  158900   0.64565477    302.03657    172.29724 
  159000   0.64609692    295.88741   -625.78393 
  159100   0.64679053    295.43148   -464.91389 
  159200   0.64764219    297.88262    194.17781 
  159300   0.64763977    298.84756    310.21034 
  159400   0.64649006    302.13291   -67.293737 
  159500   0.64520521    300.56166   -309.47566 
  159600   0.64454416    297.58395   -311.81961 
  159700    0.6458565    296.89302    519.45464 
  159800   0.64813275    300.14404    83.516164 
  159900   0.65074627      303.581   -43.105602 
  160000   0.65300104    298.66251   -73.691617 
  160100   0.65419278    298.68019    131.53406 
  160200   0.65335945    298.45742    93.977921 
  160300   0.65138708    298.34029   -74.323259 
  160400   0.64922301    300.67462   -82.774284 
  160500   0.64764635    303.80649    203.63173 
  160600     0.647101    302.03186    197.64499 
  160700   0.64710596    297.44617   -372.73541 
  160800    0.6478521    298.27341    -395.6744 
  160900   0.64836765     300.9362   -99.017533 
  161000   0.64832844    298.73397    263.59799 
  161100   0.64823506    299.69357    125.38758 
  161200   0.64833927     298.4997   -421.71731 
  161300   0.64863573    296.61375    135.22444 
  161400   0.64882626    298.62034    552.11976 
  161500   0.64964875    298.75321    162.57664 
  161600   0.64940571    303.12028   -117.04608 
  161700   0.64827495    297.97568   -249.13706 
  161800   0.64718139    296.97092   -13.933001 
  161900   0.64688803    298.08297    142.36652 
  162000   0.64779416    295.52368     234.8549 
  162100   0.64807149    300.15359   -332.72475 
  162200   0.64733396    301.18847    296.73529 
  162300   0.64590239    297.59799    358.89925 
  162400   0.64482944    295.74566   -60.547358 
  162500   0.64517354    296.35734    145.43125 
  162600   0.64626662    296.64038     22.86565 
  162700   0.64757848    301.60354   -178.35524 
  162800   0.64919667    295.46573    654.40162 
  162900   0.64900075    297.62857     99.01418 
  163000   0.64909294    294.94984   -773.39148 
  163100   0.65074475    297.84773     48.40385 
  163200   0.65216913    299.27946    425.10931 
  163300   0.65278529    301.64125   -39.431598 
  163400   0.65186819     303.4048    58.974514 
  163500   0.65020556    296.82459    62.693806 
  163600   0.64824103    291.87544    247.04879 
  163700   0.64608527    297.29144    531.77505 
  163800   0.64545841    298.82635   -96.265466 
  163900   0.64583466    298.71298   -245.59554 
  164000   0.64767208    297.17356    601.09372 
  164100   0.64891526    302.15597    301.79234 
  164200   0.65031499    296.83129    8.9099014 
  164300   0.65049325    298.86939    366.27944 
  164400   0.65000272    300.33276    322.43081 
  164500   0.65014124    294.24554    270.51279 
  164600   0.65009358    295.45918    222.68926 
  164700   0.64975382    302.22294   -141.03241 
  164800   0.64986931    303.57501   -268.23568 
  164900   0.64976294    298.77661     99.45676 
  165000    0.6488521    296.18983    225.39391 
  165100   0.64810675    299.19485    -237.8177 
  165200   0.64813706    295.77561   -421.79171 
  165300   0.64824628    293.33474    18.974371 
  165400   0.64720228    297.60815    90.968576 
  165500   0.64600047    298.51696    137.75539 
  165600   0.64503062    294.03316     21.68094 
  165700   0.64500829    296.85019   -28.137587 
  165800   0.64600563    297.50638   -217.09679 
  165900    0.6477042    300.57015    179.98245 
  166000    0.6482907    300.43747    522.07572 
  166100   0.64806718    299.63547    206.52501 
  166200   0.64848208    294.52277    195.56213 
  166300   0.64977502    297.77603    143.50629 
  166400   0.65236073    299.54074    128.75452 
  166500   0.65520276    293.62395    415.19706 
  166600   0.65650194    295.24649    112.81096 
  166700   0.65647279    299.29997    395.14562 
  166800   0.65553064    300.04894    213.52113 
  166900   0.65424998     298.4921    51.081942 
  167000   0.65269549    298.55673   -194.92704 
  167100   0.65218408    292.85702    100.88897 
  167200   0.65170333    295.99134    359.19439 
  167300   0.65115789     298.3407    291.96826 
  167400    0.6501798    295.33989    222.54677 
  167500   0.64826602    292.45469   -106.24091 
  167600   0.64617157    296.62173   -160.86918 
  167700   0.64498174    299.33454    256.00565 
  167800   0.64486257    298.34672    8.5581001 
  167900   0.64591428    296.54436     201.5095 
  168000    0.6470085    299.89257    -80.62852 
  168100   0.64819005     296.4102   -52.346229 
  168200   0.64975629    294.47926    633.76653 
  168300   0.65126765    299.43912    528.07284 
  168400    0.6524284    301.67875    89.453475 
  168500    0.6529391    300.27775    30.370266 
  168600   0.65288777    297.77562    493.68122 
  168700   0.65156912    298.31245    172.95593 
  168800   0.65069727    296.53333    171.40798 
  168900   0.65044808    296.73381   -67.209709 
  169000   0.65050006    299.91026    491.90221 
  169100    0.6507852    298.24981    436.37082 
  169200   0.65108419    293.94993    20.036917 
  169300   0.65161508    296.56056   -304.24629 
  169400   0.65294862    300.58531    168.21319 
  169500   0.65412126    301.64482    223.39748 
  169600    0.6541099     298.2216   -75.919192 
  169700   0.65305493    299.75902    53.066874 
  169800   0.65146701    298.67882   -134.93731 
  169900    0.6501103    301.20857   -502.37633 
  170000   0.64932117     300.2639   -1.7194936 
  170100   0.64901888    298.10702    233.49213 
  170200    0.6484346    290.27561   -81.321378 
  170300    0.6477139    294.57072    250.75557 
  170400   0.64834686    295.17168    315.29858 
  170500   0.64853717    299.48905   -87.085027 
  170600   0.64853124    298.05483   -201.39531 
  170700   0.64790089    296.31753    250.89511 
  170800    0.6470673      296.946    78.625965 
  170900    0.6470778    294.62507    18.974067 
  171000   0.64796498    299.47109   -300.48446 
  171100   0.64993641    301.34352     -342.266 
  171200   0.65209898    294.87953     345.5533 
  171300   0.65357467    293.89255    666.25345 
  171400   0.65384812    294.69629   -19.094956 
  171500   0.65327854    300.86445   -228.47211 
  171600   0.65283522    297.18073    293.48587 
  171700   0.65099409    296.68293   -37.448099 
  171800   0.64916939    297.68114   -249.45215 
  171900   0.64837057    298.78493   -157.18994 
  172000   0.64828182    301.29703    102.73606 
  172100   0.64937347    295.01683    38.198731 
  172200   0.65082433     294.4042    255.61701 
  172300   0.65226792    297.83862   -42.029756 
  172400   0.65399474    296.47189    110.16348 
  172500   0.65492782    299.72841    462.27346 
  172600   0.65431988    295.82044   -145.48174 
  172700   0.65375618    296.43076   -285.97265 
  172800   0.65415961    295.44538    322.28906 
  172900    0.6550973    299.12505   -130.09069 
  173000   0.65586474    299.70371   -136.33994 
  173100   0.65625037    298.03138    150.50981 
  173200    0.6558744    300.57529   -46.940112 
  173300   0.65529338    295.93228   -46.030792 
  173400   0.65393006    296.52249    493.80836 
  173500   0.65108628    296.61949    91.212491 
  173600   0.64842473    300.78986   -665.55198 
  173700   0.64797226    300.82462   -116.04331 
  173800   0.64949069    295.95943    345.38293 
  173900   0.65183438    294.27954    62.906349 
  174000   0.65427878    295.91028   -51.095694 
  174100   0.65639722    299.95003    233.53947 
  174200   0.65777421    300.39663    258.55208 
  174300   0.65654909    300.93433    72.548631 
  174400   0.65346202    303.32633   -384.38701 
  174500   0.65065645     296.8345    49.230884 
  174600   0.64862705    292.00917    407.49073 
  174700   0.64720529     297.6515    276.86379 
  174800   0.64559605     299.1341   -348.03775 
  174900   0.64429888    297.87192   -258.00152 
  175000   0.64489616    295.78621     164.7032 
  175100   0.64604182    293.52065   -349.74125 
  175200   0.64735308    294.74364   -342.77386 
  175300    0.6486513     298.3389     257.7545 
  175400   0.65020177    303.52516    447.57953 
  175500   0.65099046    298.23762    -60.99872 
  175600   0.65125414    294.35172   -333.08203 
  175700   0.65096552    298.37332    137.61825 
  175800   0.64974446    298.81501    230.82845 
  175900   0.64852876    300.16443    347.63046 
  176000   0.64749947    302.48567   -262.65064 
Loop time of 592.232 on 4 procs for 150000 steps with 8232 atoms

Performance: 21.883 ns/day, 1.097 hours/ns, 253.279 timesteps/s
94.5% CPU use with 4 MPI tasks x 1 OpenMP threads

MPI task timing breakdown:
Section |  min time  |  avg time  |  max time  |%varavg| %total
---------------------------------------------------------------
Pair    | 386.7      | 395.24     | 403.58     |  35.7 | 66.74
Bond    | 80.793     | 81.012     | 81.305     |   2.2 | 13.68
Neigh   | 22.575     | 22.652     | 22.726     |   1.3 |  3.82
Comm    | 52.534     | 61.019     | 69.547     |  92.6 | 10.30
Output  | 0.08026    | 0.088799   | 0.11204    |   4.5 |  0.01
Modify  | 26.337     | 26.705     | 27.071     |   5.2 |  4.51
Other   |            | 5.514      |            |       |  0.93

Nlocal:    2058 ave 2076 max 2034 min
Histogram: 1 0 0 0 0 1 0 1 0 1
Nghost:    5685.5 ave 5730 max 5627 min
Histogram: 1 0 0 0 0 0 2 0 0 1
Neighs:    168648 ave 174199 max 164240 min
Histogram: 1 0 0 1 1 0 0 0 0 1

Total # of neighbors = 674593
Ave neighs/atom = 81.9476
Ave special neighs/atom = 4
Neighbor list builds = 2518
Dangerous builds = 0

unfix NPT

dump 1 all custom 1000 test.dump id mol type x y z

fix prod all npt temp ${Temp} ${Temp} $(100*dt) iso 1.0 1.0 $(1000*dt)
fix prod all npt temp 298 ${Temp} $(100*dt) iso 1.0 1.0 $(1000*dt)
fix prod all npt temp 298 298 $(100*dt) iso 1.0 1.0 $(1000*dt)
fix prod all npt temp 298 298 0.10000000000000000555 iso 1.0 1.0 $(1000*dt)
fix prod all npt temp 298 298 0.10000000000000000555 iso 1.0 1.0 1

run 50000
Per MPI rank memory allocation (min/avg/max) = 9.926 | 9.928 | 9.931 Mbytes
Step Density Temp Press 
  176000   0.64749947    302.48567   -262.65064 
  176100   0.64840691     297.3846    -8.225216 
  176200   0.64938051    294.06394    333.07821 
  176300   0.64987468    294.67511   -150.30014 
  176400   0.65035755    298.01975   -105.51027 
  176500   0.65065116     294.6836    53.629417 
  176600   0.65093938    290.93146    105.16978 
  176700   0.65175922    295.14058   -359.73379 
  176800   0.65333693    301.14589    100.40767 
  176900   0.65447527    302.41732    291.42913 
  177000   0.65478231     298.3441   -83.524581 
  177100   0.65419905    302.48352    39.374959 
  177200   0.65352099    295.01663   -113.86689 
  177300   0.65252957    297.82895   -443.07965 
  177400   0.65157402    299.62934    -69.55582 
  177500   0.64980444    300.59694    259.95939 
  177600   0.64819591    299.81827   -42.838728 
  177700   0.64813266    294.83574    37.252696 
  177800   0.64848617    293.84349   -356.38139 
  177900   0.64981815    295.66412    19.463118 
  178000   0.65235103     300.3246    251.61021 
  178100   0.65532537    302.36195    53.466884 
  178200    0.6579325    299.48687    192.90458 
  178300   0.65886875    296.98829    292.85959 
  178400   0.65721451     297.2738   -64.328313 
  178500   0.65455446    297.95048   -282.25986 
  178600   0.65258165    297.86819   -119.13706 
  178700   0.65141041     298.8215    156.83048 
  178800   0.64987185    300.22367     124.8781 
  178900   0.64721416     301.7888     54.13894 
  179000   0.64536238       297.33   -30.792752 
  179100   0.64472984    291.68139   -447.44286 
  179200   0.64567043    295.18304    -259.9663 
  179300   0.64844386    302.26684   -13.400536 
  179400    0.6517781    298.24205    243.63652 
  179500    0.6540471    299.64184    212.11174 
  179600   0.65377432    294.80943    86.836408 
  179700   0.65269794    294.58078   -48.388536 
  179800   0.65219985    297.72466    137.25489 
  179900   0.65228935    297.91959   -161.63831 
  180000   0.65322288     296.9152    -83.77047 
  180100   0.65310139    298.73101   -164.99668 
  180200   0.65371015    294.94523    80.404283 
  180300   0.65444218    294.64169    25.024006 
  180400   0.65464222    296.02164    148.12055 
  180500   0.65433315    297.08233   -76.400406 
  180600   0.65295679    297.20156   -99.682857 
  180700   0.65183313    302.05706   -110.76424 
  180800   0.65091315     298.4456   -210.02979 
  180900   0.64881021    300.90741   -716.37511 
  181000   0.64781757    297.96445   -56.173108 
  181100   0.64751632    295.27023    365.55305 
  181200   0.64813236    295.44383    79.205044 
  181300   0.64851919    296.46636   -376.33906 
  181400   0.64841224    296.07554   -88.631786 
  181500   0.64811761    296.85717    19.660651 
  181600   0.64777367    298.45723    321.55608 
  181700   0.64747683    298.39181    32.941414 
  181800    0.6474085    301.64069   -155.31577 
  181900   0.64861729    302.74601    -37.00053 
  182000   0.65004965     296.2988    124.93514 
  182100   0.65039484    296.90944   -109.21588 
  182200   0.64992396    296.97639    -227.0554 
  182300   0.64936347    299.50291   -20.908479 
  182400   0.64858289    297.85175   -19.808086 
  182500   0.64767175    299.22779    -250.9735 
  182600   0.64744462    300.67957   -213.48564 
  182700   0.64802552    296.98306   -138.82656 
  182800   0.64870219    296.50452    191.32946 
  182900   0.64827172     300.8018    176.07311 
  183000   0.64757102    297.84287    167.77818 
  183100   0.64656918     295.9853   -369.90796 
  183200   0.64616948    296.26358    99.997023 
  183300   0.64673813    296.95707    162.43051 
  183400    0.6489838     298.0176    120.93657 
  183500   0.65095317    296.01989    12.071378 
  183600   0.65197629    297.42264    -58.05857 
  183700   0.65190405    296.40208   -52.283533 
  183800   0.64999836    297.28751   -98.376443 
  183900   0.64827193    292.67819    -123.3702 
  184000   0.64620537    294.74463   -160.27236 
  184100   0.64492931    301.03986    9.5670381 
  184200   0.64504228    297.99793    65.876633 
  184300   0.64687227    297.83393   -337.89751 
  184400   0.64978442    297.16017   -262.12737 
  184500   0.65299233    294.40109    167.91108 
  184600   0.65556907    296.47367    366.97819 
  184700   0.65720475    299.35652    207.21096 
  184800   0.65786848    301.20116   -15.641312 
  184900   0.65678681    300.46377   -404.76574 
  185000   0.65510377    296.19591    507.98828 
  185100   0.65251543    293.43496    247.70079 
  185200   0.65036411    299.53282   -61.475745 
  185300   0.64983775    296.64313    466.85203 
  185400   0.64928428    302.90517    68.120938 
  185500   0.64993228    298.21252   -196.40592 
  185600   0.65101304     295.7292   -115.85354 
  185700   0.65266583    295.67377   -39.269611 
  185800   0.65438497    298.33679   -32.693753 
  185900   0.65536367    297.46773    398.14949 
  186000   0.65400191    295.82786     110.8676 
  186100    0.6516443    298.36804   -195.48239 
  186200   0.65024957    297.35006   -315.41874 
  186300   0.64986607    292.37208    -428.3323 
  186400   0.65095872    297.02233    396.95639 
  186500   0.65211894    300.66309    148.90886 
  186600   0.65241548    300.67055   -450.19007 
  186700   0.65245142    297.16453   -192.42523 
  186800   0.65288159    295.64433    23.670843 
  186900   0.65362734    299.84719   -399.88081 
  187000   0.65415864    301.33151   -237.19288 
  187100   0.65391557      299.152     467.4549 
  187200   0.65277482    295.72203    28.608683 
  187300   0.65210134    297.15404   -5.1286885 
  187400   0.65194534    297.24501    111.48721 
  187500   0.65151273     297.5764   -241.95004 
  187600   0.65037464    299.78936    131.16597 
  187700   0.64958221    300.98599    282.22864 
  187800   0.64907042    297.87467   -317.02473 
  187900   0.64953304    292.43498   -202.78964 
  188000   0.65145843    293.80979   -37.870605 
  188100   0.65399489     295.9882   -290.08326 
  188200   0.65654535    303.38638    67.327359 
  188300    0.6572427     299.0181    260.48255 
  188400   0.65666426     298.1428    86.562405 
  188500   0.65572548    299.29574   -31.477482 
  188600   0.65522779    295.37543    157.81472 
  188700   0.65486807    299.85568   -441.96075 
  188800   0.65366702    300.74369   -369.79792 
  188900   0.65194844    297.80062      258.938 
  189000   0.65005108    301.61605    127.47506 
  189100   0.64870002    297.24047   -80.251992 
  189200   0.64808647    298.28659   -304.81087 
  189300   0.64836649     298.6675   -500.01879 
  189400   0.65001776    301.56955    238.27725 
  189500   0.65128849    298.00677   -185.13644 
  189600   0.65298703    295.88192   -400.87723 
  189700   0.65475167    300.68753    598.39601 
  189800   0.65522641    297.14541    273.48433 
  189900   0.65490834    297.35223   -431.64152 
  190000   0.65386706    299.37927   -74.977282 
  190100   0.65186899    302.44765    153.97057 
  190200   0.64961132    298.74907     157.3045 
  190300   0.64781374    296.20348    -32.30498 
  190400   0.64788906      291.052     -256.726 
  190500   0.64960264    295.81902   -239.93377 
  190600   0.65207996    300.06063    335.42664 
  190700   0.65384756    299.88446    223.31627 
  190800   0.65355657    298.62575    3.6489166 
  190900    0.6522772    294.54196    221.82338 
  191000   0.65094162    294.06961    193.27153 
  191100   0.64997558    296.32591   -272.41286 
  191200   0.65008773    299.04797     297.6284 
  191300   0.64945912    298.44972    174.11039 
  191400   0.64880688    298.90768    -127.4951 
  191500   0.64904484     293.7986   -114.64005 
  191600   0.64919339    295.95566   -85.938262 
  191700    0.6489717    297.71453   -89.835653 
  191800   0.64854365    300.69778     50.59804 
  191900   0.64853067     297.4155    84.396473 
  192000   0.64850779    294.83218   -90.693397 
  192100   0.64843094    295.28302   -74.245807 
  192200    0.6475611     301.9793   -76.139266 
  192300   0.64705623    301.36515   -101.37842 
  192400   0.64736383    297.54198     116.8237 
  192500   0.64908423    296.56773     205.8339 
  192600   0.65041937    296.82506    173.69833 
  192700   0.65100477     301.7105     219.3457 
  192800   0.65032703    300.25916    472.21674 
  192900   0.64905843    293.42069    -20.18784 
  193000   0.64831712    295.96775   -109.79899 
  193100   0.64789766    295.63541    362.45587 
  193200   0.64823885     297.6249    398.23515 
  193300   0.64790137    301.61588   -127.74528 
  193400   0.64709284     298.6314    90.503585 
  193500   0.64585693    299.18793    185.80455 
  193600   0.64415281    294.89292    251.55742 
  193700   0.64296907    296.62396    236.73834 
  193800   0.64165065    299.40095   -43.326565 
  193900   0.64131453    300.26346    285.92943 
  194000   0.64184363     296.3211    384.40035 
  194100    0.6425301    296.29163   -24.658199 
  194200    0.6436418    295.55685   -40.079994 
  194300   0.64461486    296.18913     -48.5689 
  194400    0.6453648    301.42091   -165.90281 
  194500   0.64659628     294.8602    -14.18394 
  194600   0.64788642    296.81039   -59.354712 
  194700   0.64881828    297.96613   -99.270188 
  194800   0.64909968    297.60105   -75.506343 
  194900   0.64831898    300.24852    69.273771 
  195000   0.64788121    296.90773    174.17736 
  195100   0.64817916    297.04625    -106.3842 
  195200   0.64831738    296.43727   -228.72159 
  195300   0.64834003    294.07417    296.24315 
  195400   0.64705151    300.49544    295.81423 
  195500   0.64593468    301.30088   -206.57992 
  195600   0.64489083    298.00997   -86.846204 
  195700   0.64340387    297.29771    14.765762 
  195800   0.64319728    301.15616    -149.7011 
  195900   0.64439988    301.45874   -503.32119 
  196000   0.64581398    301.78287   -285.53401 
  196100   0.64713462    300.62821   -61.547237 
  196200   0.64841945     295.7536    421.77984 
  196300   0.64955135    301.69667    117.13948 
  196400   0.64947757    298.26489   -311.04495 
  196500   0.64856057    298.22124    124.85047 
  196600   0.64647668     291.5307    403.15653 
  196700   0.64486274    295.55111   -17.415403 
  196800   0.64530102    297.33284    337.91588 
  196900   0.64753813    299.90303    209.94638 
  197000   0.64957376     297.6222    31.367428 
  197100    0.6495256    296.55962    407.11636 
  197200   0.64815293    298.28502   -159.81825 
  197300   0.64710962    294.93941   -207.50028 
  197400   0.64624538    293.50286   -186.58232 
  197500   0.64641133    296.32649    404.94101 
  197600   0.64612374    299.29971    139.04119 
  197700   0.64658254    295.64685    130.35318 
  197800   0.64697593    295.71969   -18.578702 
  197900   0.64738484    295.82326   -59.357627 
  198000   0.64858073    297.00523    349.39808 
  198100   0.65044049    296.69796    206.29643 
  198200   0.65165986    298.13854    218.62203 
  198300   0.65299877    296.21649    618.99201 
  198400   0.65316081    297.76846    322.11638 
  198500   0.65219916     296.8387    11.709126 
  198600   0.65130616    296.33119    34.161539 
  198700   0.65051945    302.56521   -388.34768 
  198800   0.65101663    304.61969   -137.13009 
  198900   0.65183873     297.2493   -23.431958 
  199000   0.65221271     295.6597   -90.568996 
  199100    0.6526151    296.32588    -127.6865 
  199200   0.65244398    298.18027   -126.84013 
  199300   0.65215304    302.51622   -87.703705 
  199400   0.65168372     300.4649     204.7023 
  199500   0.65108945    295.01587    237.33774 
  199600   0.65127905     294.1226   -19.290147 
  199700   0.65237411    299.21041   -113.85897 
  199800   0.65427066    300.33754   -53.363709 
  199900   0.65609523    297.66447    208.13484 
  200000   0.65665586    296.51594   -30.935215 
  200100   0.65711768    294.94023   -159.62499 
  200200   0.65755283    295.29299   -2.0420591 
  200300   0.65774773    301.04404    36.414604 
  200400    0.6566922    304.57204   -129.20661 
  200500   0.65509121    297.17514    -152.3261 
  200600   0.65350741    299.20885   -328.03932 
  200700   0.65276138     296.0116    -97.71271 
  200800   0.65308673    297.68241    100.17135 
  200900   0.65437266    299.34916    14.592464 
  201000   0.65501274     301.2398    -154.7245 
  201100   0.65502701    297.83053    475.74344 
  201200   0.65402865     296.0632   -40.132037 
  201300   0.65244841    298.45511   -25.645323 
  201400   0.65071404    297.43162    82.817618 
  201500     0.650048    298.79173   -234.92716 
  201600   0.65188614    297.81082   -250.06305 
  201700   0.65493672    292.19987    66.222455 
  201800   0.65737738    296.36683   -393.94222 
  201900   0.65818409     300.8538   -281.84035 
  202000   0.65723753    294.40062    131.14738 
  202100   0.65561479    293.36538    88.062492 
  202200   0.65385084    292.54949   -291.84053 
  202300   0.65202542    300.65124   -40.501252 
  202400   0.65056613    300.42873    255.09763 
  202500   0.64930493    298.97041   -89.967024 
  202600   0.64879319    296.01018    39.431068 
  202700   0.64927624    294.57026   -138.97764 
  202800   0.65050762    301.38805    30.364901 
  202900   0.65167555    299.82336    397.66669 
  203000   0.65216752    298.66888    20.045054 
  203100   0.65182467    298.62025   -305.82394 
  203200   0.65158693    295.66913    30.527031 
  203300   0.65105109    293.56648    220.04172 
  203400   0.65072751    290.88164   -211.81563 
  203500   0.65094141    300.08306    318.37039 
  203600    0.6518511    301.15273    323.00482 
  203700   0.65274882    297.92781   -82.490937 
  203800   0.65342892    296.94882   -27.636465 
  203900   0.65465693    295.12586    7.2603416 
  204000   0.65597954    301.46876   -161.16645 
  204100   0.65701848    298.67891    363.30906 
  204200   0.65703922     297.3012    329.57271 
  204300    0.6569981    297.41896   -179.67837 
  204400   0.65763792    299.67809   -198.29885 
  204500   0.65947202    292.97796   -83.963642 
  204600    0.6610615    293.24131    208.73512 
  204700   0.66173534    297.04183    332.75125 
  204800   0.66131002    299.68277   -136.92578 
  204900   0.66036576    300.27385    75.409984 
  205000   0.65943415    296.83031    221.47132 
  205100   0.65903829    292.90909    261.04192 
  205200   0.65896593     296.5971    85.639313 
  205300   0.65930996    300.52582    238.79377 
  205400   0.65913853    300.40404    -129.8932 
  205500   0.65853929    295.45843   -64.625655 
  205600   0.65711379     296.9114    280.92475 
  205700   0.65499158    296.95848    129.66677 
  205800   0.65324063    299.47036   -77.764126 
  205900   0.65279828    301.62386    66.533871 
  206000   0.65313152    296.11183    95.898562 
  206100   0.65316934    297.03554   -151.13572 
  206200   0.65323111    303.51654   -260.35223 
  206300   0.65338931    300.51674    29.300476 
  206400   0.65408637    298.59497    388.47162 
  206500    0.6550691    296.91492    126.39536 
  206600   0.65525971    296.22596    70.050918 
  206700   0.65475889    295.67609    -66.03376 
  206800   0.65311983    296.41021    32.376829 
  206900   0.65192772    302.68781   -75.423421 
  207000   0.65126383    301.52751    256.15234 
  207100   0.65133778    297.50925     56.03651 
  207200   0.65213065    298.32097    -154.7607 
  207300    0.6531302    294.44188   -8.1387369 
  207400   0.65325744    298.80627   -232.99077 
  207500   0.65308614    299.94567    29.195492 
  207600   0.65229542    295.43406    114.53789 
  207700   0.65143091     295.4498    288.73842 
  207800   0.65077759    293.42272    253.99041 
  207900   0.65081686    298.99132    133.44593 
  208000   0.65117488    297.04678   -107.40326 
  208100    0.6516541    299.13498   -191.33853 
  208200   0.65232172    298.16885    295.25021 
  208300   0.65329073    294.80547    166.37826 
  208400   0.65436717    294.03223    74.413743 
  208500   0.65484521    297.01418    -167.8016 
  208600   0.65576696    297.63535    -170.8807 
  208700   0.65577995    297.60901   -37.687607 
  208800    0.6552701     297.4542    68.004188 
  208900   0.65442943    293.55796   -189.65432 
  209000   0.65405027    297.91553    143.01897 
  209100   0.65365276    299.70418    77.104287 
  209200    0.6521073    300.23246   -30.435255 
  209300   0.65169708    297.47068   -166.45471 
  209400   0.65231754    294.38624    251.83794 
  209500   0.65304577    296.77718    -214.3526 
  209600   0.65365445    301.00551    -214.0634 
  209700    0.6550677    301.23939     435.2711 
  209800   0.65589934    297.52157    64.491677 
  209900   0.65546862    297.36353    106.80674 
  210000   0.65513552     298.0221     348.6592 
  210100   0.65443214    300.24984   -87.233105 
  210200   0.65396724    301.22095   -389.81939 
  210300   0.65384746    299.06488    210.81319 
  210400   0.65314564    295.57663   -127.35728 
  210500   0.65311355    295.45219   -431.08034 
  210600   0.65375138    295.47283   -21.315379 
  210700   0.65398878    296.98851   -274.87263 
  210800   0.65472336    297.57247   -469.97215 
  210900   0.65599647    298.50026    134.74075 
  211000   0.65779465    292.58318   -226.90951 
  211100    0.6590484    295.80295   -121.45143 
  211200   0.65893566    299.98599    281.17946 
  211300   0.65784976    302.54721    276.42398 
  211400   0.65514164    294.42663   -100.64597 
  211500   0.65269236    294.56293   -203.69886 
  211600   0.65212772     296.1841   -779.25559 
  211700   0.65330056    300.67951   -103.05651 
  211800   0.65506511    302.38138    338.29903 
  211900   0.65603898    299.32314    -209.4107 
  212000   0.65600462    295.46713   -352.47668 
  212100   0.65508121     298.4098    -58.55585 
  212200   0.65517854    296.35382    -208.2982 
  212300   0.65550451    298.13523   -160.10983 
  212400   0.65614848    301.43414    216.33689 
  212500   0.65636786    301.28341   -240.66775 
  212600   0.65616618    294.80393    80.436378 
  212700   0.65540324    293.42126    73.098412 
  212800   0.65448655    297.04057   -204.26748 
  212900   0.65370374    298.23119   -57.848373 
  213000   0.65350093    298.73671    121.43475 
  213100   0.65355672    297.93141    44.962316 
  213200   0.65458047    293.89953    168.26473 
  213300    0.6548027    294.20452   -257.55787 
  213400   0.65403567    301.57725   -184.64613 
  213500   0.65257458    301.90263   -37.873012 
  213600   0.65103594    297.62522    176.89192 
  213700   0.64980609    297.30418   -389.11253 
  213800   0.64993331    295.21511   -116.48536 
  213900   0.65181313    299.91465   -114.34012 
  214000   0.65446661    295.05696   -181.67989 
  214100   0.65555177    297.87992     252.6258 
  214200   0.65645368    298.32092    214.06479 
  214300   0.65724607    294.26945   -35.564176 
  214400   0.65726588     295.2906    101.13776 
  214500   0.65671338    297.70123    364.29516 
  214600    0.6557689    298.49191   -238.50431 
  214700   0.65460467    297.85945    -284.1492 
  214800   0.65291548    302.94085   -405.49852 
  214900   0.65149842    302.81665   -171.07575 
  215000   0.65125608    297.32871    125.18614 
  215100   0.65141854    297.18124   -194.33425 
  215200   0.65199442    295.09239   -715.78449 
  215300   0.65316887    300.28104    81.981913 
  215400   0.65424278    302.28284    69.708994 
  215500   0.65540965    294.30651   -278.79576 
  215600    0.6574812    296.06196    26.862466 
  215700   0.65896795    297.00814    58.853004 
  215800   0.66029472    300.06567    49.956751 
  215900   0.66023126    301.38489   -208.30487 
  216000   0.65935957    295.32981    239.06538 
  216100   0.65791478    295.32024    260.43712 
  216200   0.65624858    294.24683    257.27592 
  216300   0.65426881    299.48266   -444.70936 
  216400   0.65377058    296.74112   -208.66039 
  216500   0.65428524    297.09042   -175.31546 
  216600   0.65625093    295.15598    -16.78363 
  216700    0.6588586    293.58717    42.587655 
  216800   0.66089921    295.18108     239.5319 
  216900   0.66187903    298.50839     185.9837 
  217000   0.66133332    301.96674     136.8996 
  217100   0.65995817    297.42732   -144.84123 
  217200   0.65908564    295.38423    200.58417 
  217300   0.65863245    300.90425    254.57132 
  217400   0.65801154    299.46861    289.20305 
  217500   0.65688427    298.06023    15.395184 
  217600   0.65645775    295.04667    66.109278 
  217700   0.65605161     299.8731   -5.8512314 
  217800   0.65653871    300.27136    220.51996 
  217900   0.65710856    297.42215    47.207435 
  218000   0.65679912    297.68527   -501.37086 
  218100   0.65620727     297.4602    -345.8042 
  218200   0.65617491    295.53074    19.661011 
  218300   0.65575658    299.98319    213.25478 
  218400   0.65483979    297.60002   -162.54978 
  218500   0.65390592    296.99643   -204.03703 
  218600    0.6527877     297.3467   -169.32831 
  218700   0.65276075     296.9937    44.459813 
  218800   0.65295324    301.52691   -155.99462 
  218900   0.65292851    301.01422    44.928023 
  219000   0.65365365    297.95155    237.26592 
  219100   0.65495349    297.53448    361.50538 
  219200   0.65625548    299.11724     37.62114 
  219300   0.65679245    299.40265   -280.60173 
  219400   0.65665908    301.65232   -178.30535 
  219500   0.65562601    300.64272    246.64822 
  219600   0.65466446    293.63379    403.40252 
  219700   0.65381274    294.57293    209.47623 
  219800    0.6528863    302.76793   -18.594039 
  219900   0.65250107     298.3314    351.58979 
  220000   0.65268224    299.40343    547.02376 
  220100   0.65382133    297.15317   -38.318972 
  220200   0.65581138    296.11559    337.88898 
  220300   0.65739052    296.52395    483.60309 
  220400   0.65800594    297.32149    413.22511 
  220500    0.6576283    297.69725   -27.710053 
  220600   0.65695234    293.80609      114.073 
  220700   0.65509453     295.9444    198.07286 
  220800   0.65353479    297.38822    457.86375 
  220900   0.65313241    296.87011   -20.162214 
  221000   0.65298284    297.82828   -332.33055 
  221100   0.65369329    294.97068    86.082167 
  221200   0.65455301    294.73686    148.97079 
  221300   0.65552954    298.88945   -234.37996 
  221400   0.65687784    299.27883   -14.051887 
  221500    0.6574327    300.69307   -61.692688 
  221600   0.65731337    293.90173   -93.764947 
  221700   0.65634172    294.85735    355.84994 
  221800   0.65554056    297.33937    314.55046 
  221900   0.65461081    300.45309   -4.5368853 
  222000   0.65345072    295.50727   -407.74121 
  222100   0.65275048    297.74538    371.03138 
  222200   0.65249456    300.54496     140.8494 
  222300   0.65360644    297.54603   -412.35919 
  222400   0.65469445    297.44852   -212.00853 
  222500   0.65519015    302.45327    441.79819 
  222600   0.65600664    299.00701    440.14375 
  222700   0.65659535    296.29755   -133.32463 
  222800   0.65681115    299.79274   -267.39595 
  222900   0.65664587    301.20295    35.118708 
  223000   0.65659099    298.75137    94.221171 
  223100   0.65635784     297.4168    101.90225 
  223200   0.65641001    297.27865    0.3350153 
  223300   0.65671702    295.50099   -476.51144 
  223400   0.65742713    297.86152    31.627532 
  223500   0.65841451    297.38642    16.203119 
  223600   0.65855485    297.79746    193.32893 
  223700   0.65777062    294.79975   -144.25484 
  223800   0.65711006    291.93841   -144.95263 
  223900   0.65733655    297.51687     118.5493 
  224000   0.65711112    298.53199   -179.45851 
  224100   0.65602844    302.88117   -653.43707 
  224200   0.65591444    296.27532    370.25728 
  224300   0.65548307    292.04871    659.53194 
  224400   0.65503297    298.53801    224.95468 
  224500   0.65471019    298.10751   -354.39203 
  224600   0.65412788    296.11603   -190.18837 
  224700   0.65295123    296.83532     281.9679 
  224800   0.65266093     294.8117    91.099673 
  224900   0.65363672    292.97539    -128.6478 
  225000   0.65571157    293.47862   -383.61719 
  225100   0.65662871    301.30204    239.70736 
  225200   0.65641831    300.89545    33.566879 
  225300   0.65578606    296.09017   -119.52739 
  225400   0.65467702    297.28313   -32.585539 
  225500   0.65267155    294.26588   -417.07686 
  225600    0.6503537    298.92767   -112.88522 
  225700   0.64864386    295.81982    211.26535 
  225800   0.64874005    297.02916   -348.24929 
  225900   0.65064984    298.88642   -429.01564 
  226000    0.6527029    300.34318    384.03548 
Loop time of 200.774 on 4 procs for 50000 steps with 8232 atoms

Performance: 21.517 ns/day, 1.115 hours/ns, 249.037 timesteps/s
94.6% CPU use with 4 MPI tasks x 1 OpenMP threads

MPI task timing breakdown:
Section |  min time  |  avg time  |  max time  |%varavg| %total
---------------------------------------------------------------
Pair    | 133.42     | 135.56     | 139.02     |  19.8 | 67.52
Bond    | 26.841     | 26.924     | 27.044     |   1.6 | 13.41
Neigh   | 7.3775     | 7.3986     | 7.4244     |   0.7 |  3.69
Comm    | 16.529     | 19.987     | 22.131     |  51.3 |  9.96
Output  | 0.21936    | 0.2218     | 0.22875    |   0.9 |  0.11
Modify  | 8.7523     | 8.8584     | 8.9734     |   2.7 |  4.41
Other   |            | 1.828      |            |       |  0.91

Nlocal:    2058 ave 2076 max 2044 min
Histogram: 1 1 0 0 0 1 0 0 0 1
Nghost:    5721.25 ave 5767 max 5700 min
Histogram: 1 2 0 0 0 0 0 0 0 1
Neighs:    170006 ave 171890 max 168131 min
Histogram: 1 0 1 0 0 0 0 1 0 1

Total # of neighbors = 680026
Ave neighs/atom = 82.6076
Ave special neighs/atom = 4
Neighbor list builds = 811
Dangerous builds = 0

unfix prod

undump 1

write_restart final.restart




# bond_style none # kept ridgid in TraPPE-UA FF

# angle_style harmonic # theta_0 = 114 k_theta/kB = 62500

# dihedral_style fourier

# dihedral_coeff  #Work out how to specify up to cos 3 phi term !

# fix shake/ridgid/rattle


Total wall time: 0:14:41
